Ca2 Cr4 F12                             
   1.00000000000000     
     6.1131523766421347   -0.1449977572059752   -0.3288121167632821
     0.2162448879664574    6.0336447991948345    0.1144590287198704
    -0.0484084557417001    0.2643080740030719    7.4006623002644405
   Ca   Cr   F 
     2     4    12
Direct
  0.0056790292945124  0.9628318902129820  0.7392391607366875
  0.9939050032925323  0.0364373700932816  0.2604989484352700
  0.4996741335062467  0.0004049717473009  0.0003408165503060
  0.0002052822636855  0.4991944867768012  0.9989108746924842
  0.4995360516145482  0.0007404868017389  0.5008053238376959
  0.0003296143992486  0.5003260051845331  0.4986533015174643
  0.2849476121682173  0.7851429272377572  0.9102178649650128
  0.7147641501142203  0.2149161008634621  0.0906453512538050
  0.8851469865316162  0.7967783353330873  0.0464497158405806
  0.1144653909622306  0.2008035987846952  0.9537217428430154
  0.1613780929344344  0.7831441244597741  0.4954889450277733
  0.8390175731302350  0.2176535277514304  0.5040107802820870
  0.7444597609272776  0.8185523611580692  0.4231617607590579
  0.2549698369877618  0.1826690952442647  0.5787105112871487
  0.6309632300894918  0.9946921626851974  0.7585351977447914
  0.3688862905197396  0.0063614061164756  0.2425853128857725
  0.9140952159052560  0.5792351536165583  0.7414478303522358
  0.0875767453587599  0.4201159959325977  0.2565765609888118
 
  0.00000000E+00  0.00000000E+00  0.00000000E+00
  0.00000000E+00  0.00000000E+00  0.00000000E+00
  0.00000000E+00  0.00000000E+00  0.00000000E+00
  0.00000000E+00  0.00000000E+00  0.00000000E+00
  0.00000000E+00  0.00000000E+00  0.00000000E+00
  0.00000000E+00  0.00000000E+00  0.00000000E+00
  0.00000000E+00  0.00000000E+00  0.00000000E+00
  0.00000000E+00  0.00000000E+00  0.00000000E+00
  0.00000000E+00  0.00000000E+00  0.00000000E+00
  0.00000000E+00  0.00000000E+00  0.00000000E+00
  0.00000000E+00  0.00000000E+00  0.00000000E+00
  0.00000000E+00  0.00000000E+00  0.00000000E+00
  0.00000000E+00  0.00000000E+00  0.00000000E+00
  0.00000000E+00  0.00000000E+00  0.00000000E+00
  0.00000000E+00  0.00000000E+00  0.00000000E+00
  0.00000000E+00  0.00000000E+00  0.00000000E+00
  0.00000000E+00  0.00000000E+00  0.00000000E+00
  0.00000000E+00  0.00000000E+00  0.00000000E+00
