Ca3 Ti4 F14                             
   1.00000000000000     
    -7.6294499810784773    0.0022044955838987    0.1289900562914297
    -3.7459015023350655   -5.2758501388347119   -3.8071934000151404
    -3.8857785411521708   -5.2712986833730273    3.9364880032654881
   Ca   Ti   F 
     3     4    14
Direct
  0.4999667479606750  0.4999414882463037  0.4999905280661900
  0.0000408712619771  0.0000795930706926  0.9999832375078542
  0.9999865116679564  0.0000314857821854  0.5000060711628529
  0.5000903966036200  0.9999152697223956  0.0000689610276525
  0.9998992321478551  0.5001069710703338  0.4998951388821246
  0.0000074480835905  0.5000064852452989  0.9999846119871578
  0.4999933019963728  0.5000156272259476  0.0000024393648599
  0.7485217662522552  0.3851261451021263  0.1173939703740703
  0.2514962652255138  0.6147211825894288  0.8826921706358319
  0.9370433321200096  0.8399800763040578  0.3495215520856273
  0.0629469324695852  0.1601271170675011  0.6504382883758995
  0.3729831301743007  0.8494832541398999  0.3397904273249445
  0.6269962619260169  0.1504578344734353  0.6603064513425699
  0.1053776866761100  0.5895368506219536  0.6580061978896617
  0.3361239263129533  0.4538393163589839  0.3345645483460493
  0.6251438929784991  0.1657087950345673  0.0452945505090766
  0.8533590957118108  0.8417355243269439  0.9111533163194556
  0.8945902151843639  0.4104377305648299  0.3419678230141844
  0.6637801235300913  0.5461704817237248  0.6654114195149369
  0.3748842239985030  0.8342774444682109  0.9547160140036312
  0.1467686377179475  0.1583013268611791  0.0888122822653406
 
  0.00000000E+00  0.00000000E+00  0.00000000E+00
  0.00000000E+00  0.00000000E+00  0.00000000E+00
  0.00000000E+00  0.00000000E+00  0.00000000E+00
  0.00000000E+00  0.00000000E+00  0.00000000E+00
  0.00000000E+00  0.00000000E+00  0.00000000E+00
  0.00000000E+00  0.00000000E+00  0.00000000E+00
  0.00000000E+00  0.00000000E+00  0.00000000E+00
  0.00000000E+00  0.00000000E+00  0.00000000E+00
  0.00000000E+00  0.00000000E+00  0.00000000E+00
  0.00000000E+00  0.00000000E+00  0.00000000E+00
  0.00000000E+00  0.00000000E+00  0.00000000E+00
  0.00000000E+00  0.00000000E+00  0.00000000E+00
  0.00000000E+00  0.00000000E+00  0.00000000E+00
  0.00000000E+00  0.00000000E+00  0.00000000E+00
  0.00000000E+00  0.00000000E+00  0.00000000E+00
  0.00000000E+00  0.00000000E+00  0.00000000E+00
  0.00000000E+00  0.00000000E+00  0.00000000E+00
  0.00000000E+00  0.00000000E+00  0.00000000E+00
  0.00000000E+00  0.00000000E+00  0.00000000E+00
  0.00000000E+00  0.00000000E+00  0.00000000E+00
  0.00000000E+00  0.00000000E+00  0.00000000E+00
