Ca4 V8 F24                              
   1.00000000000000     
     8.1940093767293991   -0.0000332687077336    0.0000056874251091
    -0.0000356050497922    8.0279496190885258   -0.0000158294968130
    -0.0000033371996156   -0.0000308309685844    8.1958319133184521
   Ca   V    F 
     4     8    24
Direct
  0.9999400081992776  0.5000014194589479  0.4999946980373148
  0.5001191300980543  0.0000030513759239  0.0000037597822248
  0.5000314276599421  0.9999958291497951  0.5000195220955199
  0.4996106088951602  0.4999976726538948  0.4999984784162337
  0.2524385235304354  0.2500178603482804  0.2523667082972895
  0.2524354999763392  0.2500307857272453  0.7476344511706988
  0.2524393396316421  0.7499522516033743  0.2523647001028663
  0.2524359589455680  0.7499635662472642  0.7476347391971674
  0.7475007242862095  0.2500607439233680  0.2523970194319526
  0.7475013540323093  0.2500881945046690  0.7476034202349277
  0.7475032960349282  0.7499321789092659  0.2523962312412709
  0.7475021739944968  0.7499520269327024  0.7476044177713564
  0.0000106351808240  0.2681199832184588  0.2939032542919434
  0.0000108809686836  0.2681217827267148  0.7060925912560360
  0.0000154868498448  0.7318743161619041  0.2938957971364027
  0.0000129211042381  0.7318817541158832  0.7060940675200276
  0.5000106563488285  0.2992556586528501  0.2846991907065825
  0.5000108256650061  0.2992533574266508  0.7152971271315006
  0.5000138636020419  0.7007439130684603  0.2847092240026006
  0.5000108868732069  0.7007564095674578  0.7152857403130561
  0.2943659639555855  0.2309733848394708  0.9999999185580630
  0.2852616170469238  0.2019309478931537  0.5000014269147620
  0.2943743143159029  0.7690184149322588 -0.0000031766650186
  0.2852560800228259  0.7980610643220426  0.4999961201177623
  0.7058963670017875  0.2310073324765457  0.0000007951698096
  0.7148307093014675  0.2017439827056239  0.5000030987609221
  0.7058872720717528  0.7689970812642243  0.9999997481332167
  0.7148354043946969  0.7982662743279471  0.4999995961670905
  0.3337466587552163  0.9999939092280221  0.2369078387974503
  0.3337437652412380  0.9999985487124811  0.7630964139605878
  0.2361198537157966  0.4999907407249755  0.3334230473122896
  0.2361235889641882  0.4999975368414049  0.6665747656853548
  0.6661033518364965  0.9999976164662546  0.2369220151962559
  0.6661039589125270  0.0000127296912542  0.7630809387107509
  0.7638999755849136  0.4999974953920641  0.3334136918698038
  0.7638969170016442  0.5000101844091797  0.6665886231739340
 
  0.00000000E+00  0.00000000E+00  0.00000000E+00
  0.00000000E+00  0.00000000E+00  0.00000000E+00
  0.00000000E+00  0.00000000E+00  0.00000000E+00
  0.00000000E+00  0.00000000E+00  0.00000000E+00
  0.00000000E+00  0.00000000E+00  0.00000000E+00
  0.00000000E+00  0.00000000E+00  0.00000000E+00
  0.00000000E+00  0.00000000E+00  0.00000000E+00
  0.00000000E+00  0.00000000E+00  0.00000000E+00
  0.00000000E+00  0.00000000E+00  0.00000000E+00
  0.00000000E+00  0.00000000E+00  0.00000000E+00
  0.00000000E+00  0.00000000E+00  0.00000000E+00
  0.00000000E+00  0.00000000E+00  0.00000000E+00
  0.00000000E+00  0.00000000E+00  0.00000000E+00
  0.00000000E+00  0.00000000E+00  0.00000000E+00
  0.00000000E+00  0.00000000E+00  0.00000000E+00
  0.00000000E+00  0.00000000E+00  0.00000000E+00
  0.00000000E+00  0.00000000E+00  0.00000000E+00
  0.00000000E+00  0.00000000E+00  0.00000000E+00
  0.00000000E+00  0.00000000E+00  0.00000000E+00
  0.00000000E+00  0.00000000E+00  0.00000000E+00
  0.00000000E+00  0.00000000E+00  0.00000000E+00
  0.00000000E+00  0.00000000E+00  0.00000000E+00
  0.00000000E+00  0.00000000E+00  0.00000000E+00
  0.00000000E+00  0.00000000E+00  0.00000000E+00
  0.00000000E+00  0.00000000E+00  0.00000000E+00
  0.00000000E+00  0.00000000E+00  0.00000000E+00
  0.00000000E+00  0.00000000E+00  0.00000000E+00
  0.00000000E+00  0.00000000E+00  0.00000000E+00
  0.00000000E+00  0.00000000E+00  0.00000000E+00
  0.00000000E+00  0.00000000E+00  0.00000000E+00
  0.00000000E+00  0.00000000E+00  0.00000000E+00
  0.00000000E+00  0.00000000E+00  0.00000000E+00
  0.00000000E+00  0.00000000E+00  0.00000000E+00
  0.00000000E+00  0.00000000E+00  0.00000000E+00
  0.00000000E+00  0.00000000E+00  0.00000000E+00
  0.00000000E+00  0.00000000E+00  0.00000000E+00
