Ca8 V12 F42                             
   1.00000000000000     
     7.5048290000000000   -0.0217870000000000    0.0536330000000000
    -3.7768880000000000    6.5177659999999999   -0.0908710000000000
    -0.4816980000000000    0.5008430000000000   18.2726399999999991
   Ca   V    F 
     8    12    42
Direct
  0.8316229742855470  0.8759839208893679  0.7653722157564196
  0.4626554444357900  0.7735565680187957  0.5969462065023531
  0.8338906204915190  0.4088096631276595  0.2667572599632322
  0.6312240061937905  0.0679681333503843  0.9265088462085972
  0.8134911263173401  0.9065754315864012  0.2710885410340513
  0.1448759287749409  0.5386591135841768  0.9345621141300998
  0.0070775164305860  0.7822905361755595  0.0930895380289175
  0.1834052265128918  0.0723611283619144  0.4418681617529193
  0.3143688381719306  0.9213319022275561  0.2645726351305676
  0.9753693078862442  0.2538361950677502  0.6024293879275376
  0.6615490764164932  0.5814065606795848  0.9354727119247765
  0.3262798036539095  0.9136247424214369  0.7667789918969079
 -0.0099436406212717  0.2533851199207923  0.1064676589893743
  0.6507108827372131  0.5900428974097432  0.4310734178900696
  0.4912767556209567  0.7518198669284156  0.1031057751230521
  0.1511776799575909  0.5822396904360636  0.4316160089257074
  0.3202297586958264  0.4128435519687521  0.7700151179253909
  0.8215160492077831  0.4061582539903624  0.7664522517143663
  0.6584250977783206  0.0887306134426183  0.4306447799832127
  0.4995519891429324  0.2577510834109475  0.1014163644410238
  0.7197662502713005  0.1072458202920126  0.5383985984211226
  0.7897428467760200  0.4309911735635107  0.8780838834579413
  0.4774681832747069  0.2051651556595564  0.2119426001770892
  0.1644203197729781  0.6514186947709527  0.3223619103988796
  0.5152985136595908  0.7321702371253657 -0.0102010457789120
  0.2390428156060131  0.4074131609624081  0.6634687045761096
  0.7702141482651476  0.8682603464990043  0.8833327816279725
  0.0110516974895695  0.7609893197290825  0.2140251950032795
  0.0968716272972488  0.1268281240894843  0.5447085810966678
  0.9551389112188776  0.6879030553399156  0.9802890379493373
  0.7958265656096277  0.9780399972678708  0.6577856280342196
  0.1469621626715957  0.0255748184749783  0.3205739005311028
  0.5483981923641982  0.2948775193034518  0.9893089892967774
  0.6016231813785601  0.0618660599398522  0.3178602889844590
  0.8531913313535031  0.3786543116544334  0.6616715406709470
  0.3817081113290413  0.4588377549658387  0.8820670776068197
  0.1373952290177831  0.5199270099358682  0.5409829295541539
  0.4767182371161711  0.7960052418842284  0.2134376067234315
  0.8131202157315436  0.3841496640428095  0.1290305726029430
  0.5397902621490290  0.2773702166740514  0.4409740036661488
  0.6342324558985664  0.1036758839390186  0.7940325901985393
  0.4473907925235444  0.7243577276342922  0.7556610102509551
  0.3381733787749061  0.4652153330106684  0.4169634054463061
  0.1829218623593154  0.5588000947305298  0.0747226399664541
  0.9814695347587272  0.2351374586379627  0.2222385485689126
  0.6106222118599315  0.6425096411968367  0.5325853070192967
  0.3123743354704739  0.8537373879288880  0.8807862562897419
  0.3510175459668728  0.9447666666192541  0.6594197608898070
  0.6979317678604330  0.5807938768447957  0.3190256480122411
  0.9279331226288535  0.2344975211880045 -0.0079305837023798
  0.1857553057748227  0.1430616034779761  0.0858800231836350
  0.7791770150469376  0.9047629144739153  0.4042379307927530
  0.0184705163324530  0.7117974845396974  0.7602439925991942
  0.1987352967888338  0.1013330566271927  0.7773510033533331
  0.9622373716864959  0.7010543258136093  0.4443914170240819
  0.8049767290475326  0.9406349496694757  0.1267589537423255
  0.0408983410625502  0.3494485794985812  0.8110211540600166
  0.6083130378754380  0.5618383020533730  0.1135059488956056
  0.3670268683628557  0.8725012290088839  0.4685711288702951
  0.3845654092165309  0.9503515285879029  0.0817687508096781
  0.6208710009004711  0.5095875653542618  0.7443648987856771
  0.9262160256238319  0.3145741866425683  0.3879936421302946
 
             NaN             NaN             NaN
             NaN             NaN             NaN
             NaN             NaN             NaN
             NaN             NaN             NaN
             NaN             NaN             NaN
             NaN             NaN             NaN
             NaN             NaN             NaN
             NaN             NaN             NaN
             NaN             NaN             NaN
             NaN             NaN             NaN
             NaN             NaN             NaN
             NaN             NaN             NaN
             NaN             NaN             NaN
             NaN             NaN             NaN
             NaN             NaN             NaN
             NaN             NaN             NaN
             NaN             NaN             NaN
             NaN             NaN             NaN
             NaN             NaN             NaN
             NaN             NaN             NaN
             NaN             NaN             NaN
             NaN             NaN             NaN
             NaN             NaN             NaN
             NaN             NaN             NaN
             NaN             NaN             NaN
             NaN             NaN             NaN
             NaN             NaN             NaN
             NaN             NaN             NaN
             NaN             NaN             NaN
             NaN             NaN             NaN
             NaN             NaN             NaN
             NaN             NaN             NaN
             NaN             NaN             NaN
             NaN             NaN             NaN
             NaN             NaN             NaN
             NaN             NaN             NaN
             NaN             NaN             NaN
             NaN             NaN             NaN
             NaN             NaN             NaN
             NaN             NaN             NaN
             NaN             NaN             NaN
             NaN             NaN             NaN
             NaN             NaN             NaN
             NaN             NaN             NaN
             NaN             NaN             NaN
             NaN             NaN             NaN
             NaN             NaN             NaN
             NaN             NaN             NaN
             NaN             NaN             NaN
             NaN             NaN             NaN
             NaN             NaN             NaN
             NaN             NaN             NaN
             NaN             NaN             NaN
             NaN             NaN             NaN
             NaN             NaN             NaN
             NaN             NaN             NaN
             NaN             NaN             NaN
             NaN             NaN             NaN
             NaN             NaN             NaN
             NaN             NaN             NaN
             NaN             NaN             NaN
             NaN             NaN             NaN
