Ca8 V12 F42                             
   1.00000000000000     
     7.5048290000000000   -0.0217870000000000    0.0536330000000000
    -3.7768880000000000    6.5177659999999999   -0.0908710000000000
    -0.4816980000000000    0.5008430000000000   18.2726399999999991
   Ca   V    F 
     8    12    42
Direct
  0.8236770483715776  0.8593548429192637  0.7690580018634441
  0.4643632147629518  0.7888465105885610  0.6025501480302367
  0.8406827402942502  0.4395876676270875  0.2741652481425893
  0.6412249374716232  0.0461794841881836  0.9374696093820334
  0.8172013476942981  0.9350857064419865  0.2771673523657658
  0.1406266072823122  0.5186128315636389  0.9459347310794135
  0.0085038481084815  0.7874719983929537  0.0988564396020976
  0.1819102613088021  0.1179740091427093  0.4439157962980148
  0.3210397744047582  0.9473072949674135  0.2721842135270334
  0.9731483026012762  0.2692985784707689  0.6112130527729485
  0.6627108394209226  0.5647722694131513  0.9355803242021787
  0.3185340846556990  0.8914990633682723  0.7819363013129242
  0.0002637580639370  0.2595155876489415  0.1170028867105905
  0.6551455304132977  0.6276888352112809  0.4363373135331801
  0.4997400245499506  0.7545412748914581  0.1149789302991898
  0.1517999613419166  0.6194367348022803  0.4423013868822203
  0.3105054918971235  0.3888637109787460  0.7813438252539942
  0.8143859110102184  0.3842735312722668  0.7777254118813511
  0.6590002471867304  0.1250741253187869  0.4383681880692266
  0.5087214615278997  0.2621365675777566  0.1092306223457034
  0.7196315035899310  0.1402364202666832  0.5463187014673617
  0.7907278477701570  0.4005328221451588  0.8891040741434647
  0.4892301973419240  0.2299755554149019  0.2197704387868999
  0.1652226369401279  0.6853660131517941  0.3332949865325829
  0.5453469176463716  0.7320753583090670  0.0021508912855182
  0.2255818203852805  0.3855620317671855  0.6761873823659240
  0.7752690649579482  0.8511816891888687  0.8875271458680278
  0.0228704532019659  0.7782894076412166  0.2197095227601720
  0.0983313620558799  0.1536534014042668  0.5499802836784383
  0.9530737059886791  0.6698631856651170  0.9880919954577354
  0.7901802665776738  0.9865096859476138  0.6648436309554527
  0.1515719130221583  0.0571649499054644  0.3237000625721907
  0.5523256738373260  0.2770963025718723  0.9974058587374552
  0.6080059775704425  0.0957706356684038  0.3256710786695660
  0.8462343128232324  0.3857390133909808  0.6716262322328711
  0.3722737308090943  0.4364004157054785  0.8929609029179053
  0.1430111875038622  0.5486527211387852  0.5530128394500184
  0.4789784192880626  0.8108194914773414  0.2247580421968761
  0.8246887803031049  0.3943648343230032  0.1328884240039815
  0.5411204520970515  0.3152423869770659  0.4476442854821465
  0.6299153540752577  0.0795194955247388  0.8025579685776094
  0.4349440331985091  0.6995785480073348  0.7689913103728703
  0.3402203500572090  0.5037582567959995  0.4244523760538889
  0.1994825366285960  0.5560003863990978  0.0808046769493202
  0.9908875730969231  0.2660517563859875  0.2319548395297033
  0.6178344764761380  0.6733479128466802  0.5386033979365922
  0.3188992296311853  0.8341185853013466  0.8954533362466163
  0.3418803390741468  0.9324164979378399  0.6751217385666013
  0.7041610145942826  0.6134637869368450  0.3252978097905889
  0.9368435232960379  0.2135042366002178  0.0036104592037413
  0.1940545227831809  0.1468514111301172  0.0977237693037220
  0.7850464620450611  0.9440534551262730  0.4105640441890099
  0.0090682701569941  0.6913432791001904  0.7776473189131411
  0.1924270180786506  0.0794834046654198  0.7911684582700127
  0.9646331831300505  0.7405211264975211  0.4526728187543182
  0.8112313920194033  0.9495697862250182  0.1416127131664177
  0.0309514814408094  0.3208026468926812  0.8204852881419861
  0.6181215162102550  0.5665010672637592  0.1266301992957098
  0.3669398983789256  0.9113424638206954  0.4758164132510937
  0.3852597053922443  0.9481534326809058  0.0964808168394845
  0.6125397875648658  0.4880578005724651  0.7572206360155794
  0.9309840256605116  0.3493993918342580  0.3985605405155334
 
             NaN             NaN             NaN
             NaN             NaN             NaN
             NaN             NaN             NaN
             NaN             NaN             NaN
             NaN             NaN             NaN
             NaN             NaN             NaN
             NaN             NaN             NaN
             NaN             NaN             NaN
             NaN             NaN             NaN
             NaN             NaN             NaN
             NaN             NaN             NaN
             NaN             NaN             NaN
             NaN             NaN             NaN
             NaN             NaN             NaN
             NaN             NaN             NaN
             NaN             NaN             NaN
             NaN             NaN             NaN
             NaN             NaN             NaN
             NaN             NaN             NaN
             NaN             NaN             NaN
             NaN             NaN             NaN
             NaN             NaN             NaN
             NaN             NaN             NaN
             NaN             NaN             NaN
             NaN             NaN             NaN
             NaN             NaN             NaN
             NaN             NaN             NaN
             NaN             NaN             NaN
             NaN             NaN             NaN
             NaN             NaN             NaN
             NaN             NaN             NaN
             NaN             NaN             NaN
             NaN             NaN             NaN
             NaN             NaN             NaN
             NaN             NaN             NaN
             NaN             NaN             NaN
             NaN             NaN             NaN
             NaN             NaN             NaN
             NaN             NaN             NaN
             NaN             NaN             NaN
             NaN             NaN             NaN
             NaN             NaN             NaN
             NaN             NaN             NaN
             NaN             NaN             NaN
             NaN             NaN             NaN
             NaN             NaN             NaN
             NaN             NaN             NaN
             NaN             NaN             NaN
             NaN             NaN             NaN
             NaN             NaN             NaN
             NaN             NaN             NaN
             NaN             NaN             NaN
             NaN             NaN             NaN
             NaN             NaN             NaN
             NaN             NaN             NaN
             NaN             NaN             NaN
             NaN             NaN             NaN
             NaN             NaN             NaN
             NaN             NaN             NaN
             NaN             NaN             NaN
             NaN             NaN             NaN
             NaN             NaN             NaN
