Ca9 Cr12 F42                            
   1.00000000000000     
     7.3897151188628234    0.0348754706145297   -0.4871471709448952
    -3.5473559595886770    6.4898720955821103    0.2006063899210647
     0.9866941957520285    0.1749415393274682   18.4476602990092715
   Ca   Cr   F 
     9    12    42
Direct
  0.5282465919148649  0.8338178265265697  0.6843359156480986
  0.8200573220034570  0.5030942851029891  0.3147189690156793
  0.5787957604961989  0.0861674606591691  0.0100317577418139
  0.0275713604073573  0.8231307666638656  0.6658864648588079
  0.8211212893218089  0.0008802295170938  0.3490063044826641
  0.1039817123046589  0.5938426026372881  0.9774145960752136
  0.9827828775284004  0.8496689808041253  0.1553824870654452
  0.8491575172958647  0.9051468892589085  0.8469118554219435
  0.2163799758562917  0.1965204632406881  0.4993313204694871
  0.3206165787277087  0.9875782700957885  0.3372091590289017
  0.0069698759764805  0.3080143844298675  0.6586790005987595
  0.6346893810353436  0.6337827172999084  0.9996656338604168
  0.3493585245349280  0.9914901462014498  0.8296220268005925
  0.9474476802613268  0.3196763514867413  0.1608760575886095
  0.7034303475289008  0.6782227195689359  0.5059544624500418
  0.4533614553045453  0.8163046303461385  0.1728945745316750
  0.2023166452817406  0.6833479517039649  0.4954926195754226
  0.3207409762837443  0.4735198978942563  0.8268551540220628
  0.8091697928343038  0.4478432869529101  0.8171666895551226
  0.7053206171314983  0.1826343849453309  0.5056428701880193
  0.4549760484455874  0.3237617439874612  0.1665510619020338
  0.7250775822334887  0.1182067310845767  0.6114288570606945
  0.8623715571963757  0.6490692762913497  0.9150506036281243
  0.4875660648639695  0.2515853742810137  0.2851107584041301
  0.1280318186444021  0.7003625310229253  0.3698218483004894
  0.3873631547845093  0.7400528102903436  0.0502462631437623
  0.2619557717151295  0.4840282475840496  0.7210371427811566
  0.7388295447492155  0.9209868924594176  0.9604843778069281
  0.9154278773655733  0.8301084728512578  0.2698054995417323
  0.1321688654688060  0.1446981108238461  0.6168914267789773
  0.9117759218431374  0.7123240622288094  0.0486762912326313
  0.8612595208721956  0.9894821780992871  0.7289905490380946
  0.1580770689651132  0.1122506494619984  0.3802050185828136
  0.5275517829017176  0.3562542578892547  0.0404484291537059
  0.7423558189099992  0.2516001127859866  0.3986884302675762
  0.8813398485556334  0.4662835346907315  0.6992181413613991
  0.3801914903922139  0.5324592433433253  0.9333958523126711
  0.2568623875203002  0.7414013453471853  0.6151983715597922
  0.5100234853459469  0.8972413254050338  0.2967601770459254
  0.7658728936683232  0.4521470036386575  0.1778700937259998
  0.5569799548353984  0.3374300338196718  0.5268195151607884
  0.6461596122601776  0.2323885089462934  0.8920870609333917
  0.5184440936856731  0.8484136732949779  0.8139546503761608
  0.4010285814721470  0.5721561794726497  0.4825761588152702
  0.1533295772661418  0.6736205870640504  0.1918650490932947
  0.9273305626829966  0.2737394468654770  0.2668665534906651
  0.6957437166203633  0.7123569195343720  0.6135573270352808
  0.3028362568793739  0.9115202289003861  0.9348957816607637
  0.3638559617217823  0.0176311485490359  0.7228636871585508
  0.7330712816401928  0.6749473761365223  0.3985770373257438
  0.9125655848853071  0.3253842959872557  0.0524142126277738
  0.1488643347837879  0.2059521121830912  0.1530700990184855
  0.8515391693168013  0.0258815353807194  0.4762355589431095
  0.0208213386299931  0.7554406524090709  0.7887414253763936
  0.1862139069006759  0.1380157563713240  0.8440959954896456
  0.0085840966577919  0.7934738479858439  0.5261541563863119
  0.7421781288169456  0.9656964175354688  0.1361613303662850
  0.0402000632374566  0.4144771282105566  0.8596802983125826
  0.5055105946586949  0.5895417125346398  0.2025672099752356
  0.3761529103992345  0.9753807269397612  0.4650014332243799
  0.3999090563005510  0.0437288697229619  0.1315845579224373
  0.6079416860968294  0.5500796319423245  0.7970840544328297
  0.0391447437806107  0.3967550613110404  0.5316567342671874
 
  0.00000000E+00  0.00000000E+00  0.00000000E+00
  0.00000000E+00  0.00000000E+00  0.00000000E+00
  0.00000000E+00  0.00000000E+00  0.00000000E+00
  0.00000000E+00  0.00000000E+00  0.00000000E+00
  0.00000000E+00  0.00000000E+00  0.00000000E+00
  0.00000000E+00  0.00000000E+00  0.00000000E+00
  0.00000000E+00  0.00000000E+00  0.00000000E+00
  0.00000000E+00  0.00000000E+00  0.00000000E+00
  0.00000000E+00  0.00000000E+00  0.00000000E+00
  0.00000000E+00  0.00000000E+00  0.00000000E+00
  0.00000000E+00  0.00000000E+00  0.00000000E+00
  0.00000000E+00  0.00000000E+00  0.00000000E+00
  0.00000000E+00  0.00000000E+00  0.00000000E+00
  0.00000000E+00  0.00000000E+00  0.00000000E+00
  0.00000000E+00  0.00000000E+00  0.00000000E+00
  0.00000000E+00  0.00000000E+00  0.00000000E+00
  0.00000000E+00  0.00000000E+00  0.00000000E+00
  0.00000000E+00  0.00000000E+00  0.00000000E+00
  0.00000000E+00  0.00000000E+00  0.00000000E+00
  0.00000000E+00  0.00000000E+00  0.00000000E+00
  0.00000000E+00  0.00000000E+00  0.00000000E+00
  0.00000000E+00  0.00000000E+00  0.00000000E+00
  0.00000000E+00  0.00000000E+00  0.00000000E+00
  0.00000000E+00  0.00000000E+00  0.00000000E+00
  0.00000000E+00  0.00000000E+00  0.00000000E+00
  0.00000000E+00  0.00000000E+00  0.00000000E+00
  0.00000000E+00  0.00000000E+00  0.00000000E+00
  0.00000000E+00  0.00000000E+00  0.00000000E+00
  0.00000000E+00  0.00000000E+00  0.00000000E+00
  0.00000000E+00  0.00000000E+00  0.00000000E+00
  0.00000000E+00  0.00000000E+00  0.00000000E+00
  0.00000000E+00  0.00000000E+00  0.00000000E+00
  0.00000000E+00  0.00000000E+00  0.00000000E+00
  0.00000000E+00  0.00000000E+00  0.00000000E+00
  0.00000000E+00  0.00000000E+00  0.00000000E+00
  0.00000000E+00  0.00000000E+00  0.00000000E+00
  0.00000000E+00  0.00000000E+00  0.00000000E+00
  0.00000000E+00  0.00000000E+00  0.00000000E+00
  0.00000000E+00  0.00000000E+00  0.00000000E+00
  0.00000000E+00  0.00000000E+00  0.00000000E+00
  0.00000000E+00  0.00000000E+00  0.00000000E+00
  0.00000000E+00  0.00000000E+00  0.00000000E+00
  0.00000000E+00  0.00000000E+00  0.00000000E+00
  0.00000000E+00  0.00000000E+00  0.00000000E+00
  0.00000000E+00  0.00000000E+00  0.00000000E+00
  0.00000000E+00  0.00000000E+00  0.00000000E+00
  0.00000000E+00  0.00000000E+00  0.00000000E+00
  0.00000000E+00  0.00000000E+00  0.00000000E+00
  0.00000000E+00  0.00000000E+00  0.00000000E+00
  0.00000000E+00  0.00000000E+00  0.00000000E+00
  0.00000000E+00  0.00000000E+00  0.00000000E+00
  0.00000000E+00  0.00000000E+00  0.00000000E+00
  0.00000000E+00  0.00000000E+00  0.00000000E+00
  0.00000000E+00  0.00000000E+00  0.00000000E+00
  0.00000000E+00  0.00000000E+00  0.00000000E+00
  0.00000000E+00  0.00000000E+00  0.00000000E+00
  0.00000000E+00  0.00000000E+00  0.00000000E+00
  0.00000000E+00  0.00000000E+00  0.00000000E+00
  0.00000000E+00  0.00000000E+00  0.00000000E+00
  0.00000000E+00  0.00000000E+00  0.00000000E+00
  0.00000000E+00  0.00000000E+00  0.00000000E+00
  0.00000000E+00  0.00000000E+00  0.00000000E+00
  0.00000000E+00  0.00000000E+00  0.00000000E+00
