Iron deuteride                          
   1.00000000000000     
     5.6993881300566009   -0.0000000115802521   -0.0000000124935228
    -0.0000000050697649    2.8473526650124739   -0.0000000006572503
    -0.0000000064853462   -0.0000000005882973    2.8471573401346175
   Fe
     4
Direct
  0.0000010673208736 -0.0000000048993780  0.0000000046322987
  0.2500006234018109  0.5000000003301502  0.4999999994872590
  0.4999988990358933  0.0000000017658025 -0.0000000013578347
  0.7499994102414220  0.5000000028034252  0.4999999972382770
 
  0.00000000E+00  0.00000000E+00  0.00000000E+00
  0.00000000E+00  0.00000000E+00  0.00000000E+00
  0.00000000E+00  0.00000000E+00  0.00000000E+00
  0.00000000E+00  0.00000000E+00  0.00000000E+00
