Ca3 Ni4 F14                             
   1.00000000000000     
    -7.1630815636285883   -0.0054366284486988   -0.1989216559664373
    -3.6915430728201604   -5.1052233197349510   -3.8292999636660978
    -3.4792632964103669   -5.1063163320632379    3.6322679635516568
   Ca   Ni   F 
     3     4    14
Direct
  0.4999756583730526  0.4999932887574086  0.4998765653727327
  0.9999750988446593 -0.0000328767826158 -0.0000330988154388
  0.4999408409698011  0.0001042401960156  0.4999818958939352
  0.5002737825209896 -0.0000211260543908  0.0003371208265152
 -0.0000590557192557  0.4999432298290192  0.5000575446711745
  0.0002526800672335  0.4997417477907088 -0.0000008200709041
  0.4999699978843403  0.5002125922097095  0.9998748015037014
  0.7516434135857007  0.3943710081920389  0.1057001215617337
  0.2484399232438510  0.6056535009468376  0.8942058119536939
  0.8828775324779187  0.8306805729422886  0.3569712036857323
  0.1170577268444260  0.1692851307368671  0.6430178875443976
  0.4292277861000975  0.8569771649984677  0.3308233045843630
  0.5707238255749099  0.1430449370769216  0.6692460737682522
  0.1056334391727690  0.5416226042158032  0.6776410917632246
  0.3359894446170680  0.4327251640406028  0.3256275702477704
  0.5942975167322343  0.1745212447847192  0.0674071442453411
  0.8252373015943492  0.8223970640942201  0.9584267448079234
  0.8942813576603731  0.4582769249572575  0.3223344861000157
  0.6638466445845094  0.5673047248119134  0.6743122578216705
  0.4056590203810858  0.8257856675962417  0.9325568639269826
  0.1747560644899010  0.1774131946599589  0.0416354286071829
 
  0.00000000E+00  0.00000000E+00  0.00000000E+00
  0.00000000E+00  0.00000000E+00  0.00000000E+00
  0.00000000E+00  0.00000000E+00  0.00000000E+00
  0.00000000E+00  0.00000000E+00  0.00000000E+00
  0.00000000E+00  0.00000000E+00  0.00000000E+00
  0.00000000E+00  0.00000000E+00  0.00000000E+00
  0.00000000E+00  0.00000000E+00  0.00000000E+00
  0.00000000E+00  0.00000000E+00  0.00000000E+00
  0.00000000E+00  0.00000000E+00  0.00000000E+00
  0.00000000E+00  0.00000000E+00  0.00000000E+00
  0.00000000E+00  0.00000000E+00  0.00000000E+00
  0.00000000E+00  0.00000000E+00  0.00000000E+00
  0.00000000E+00  0.00000000E+00  0.00000000E+00
  0.00000000E+00  0.00000000E+00  0.00000000E+00
  0.00000000E+00  0.00000000E+00  0.00000000E+00
  0.00000000E+00  0.00000000E+00  0.00000000E+00
  0.00000000E+00  0.00000000E+00  0.00000000E+00
  0.00000000E+00  0.00000000E+00  0.00000000E+00
  0.00000000E+00  0.00000000E+00  0.00000000E+00
  0.00000000E+00  0.00000000E+00  0.00000000E+00
  0.00000000E+00  0.00000000E+00  0.00000000E+00
