Ca8 V12 F42                             
   1.00000000000000     
     7.4849969999999999   -0.0439580000000000    0.0654800000000000
    -3.7859790000000002    6.5451430000000004   -0.1112010000000000
    -0.4522540000000000    0.4642520000000000   18.4348160000000014
   Ca   V    F 
     8    12    42
Direct
  0.8649160169039136  0.0198696698213705  0.8777123280932434
  0.4882895793947697  0.8831373666749434  0.7087627300762652
  0.8830468900367889  0.5590380996694735  0.3679861063118481
  0.6486192729258029  0.2116210143410527  0.0257152357721229
  0.8123838166274349  1.0236344340657155  0.3749970604390807
  0.1914642971925907  0.6724891595379531  0.0517438288257997
 -0.1182000384009308 -0.0262293989732079  0.1142101938713719
  0.2093875761993279  0.1644967902660883  0.5616565851548800
  0.3146708480336592  0.0661856684612206  0.3604565596868155
  0.9924533697013890  0.3767274602960642  0.7076990882227375
  0.3535930454965301  0.5073664267150164  0.3929494111831052
  0.3464376946449382  0.0255709717706253  0.8679396515126115
  1.0019381966887679  0.3598921315417032  0.2184965534028241
  0.6664383729455482  0.7073908803972934  0.5363962459384117
  0.4939523079191899  0.8488848747898265  0.2194476177544670
  0.1678617476352252  0.7050749087296710  0.5347028416877824
  0.3434421993334065  0.5284553021747453  0.8724944760209544
  0.8507402487962542  0.5262075668723611  0.8710647168588549
  0.6772587485082077  0.2115287699610978  0.5301229711800544
  0.4944124424662833  0.3576784494445189  0.2080977853193754
  0.7456167158252889  0.2255163182438027  0.6378832394682294
  0.8833905012404824  0.5361791642885947  0.9818278401091100
  0.4336368739516918  0.3669552469357703  0.3173797721168198
  0.1988559734961198  0.7961642386466632  0.4232210541106259
  0.5397922255884754  0.9316403186606195  0.1103532381648828
  0.2720410876361957  0.5328574652294928  0.7645596835869239
  0.8249045397066174  0.0380336435353042  0.9966102886108114
  0.0030306795739710  0.8981220836965239  0.3308294327807845
  0.1235461804220677  0.2524248794613433  0.6540532627582085
  0.0594058357268391  0.8383968112197113  0.0993787381734340
  0.8201166992646869  0.0988194922478957  0.7641836661098734
  0.2058249328012544  0.1997761588434603  0.4374397329062248
  0.5339215563065255  0.3328965940734425  0.1049645246226762
  0.6211599701811704  0.1951662924156319  0.4060340123651144
  0.8585903257719852  0.4971423516362991  0.7649364562200447
  0.3553848001505793  0.5661294759820291  0.9784563374773098
  0.1559318299582295  0.6365879441974149  0.6433678181615978
  0.4856713299327315  0.7785112117424363  0.3319652222894465
  0.7951294540031443  0.4501684208892516  0.2509394657104996
  0.5538770964362627  0.3959859042331693  0.5497079812051959
  0.6467852177227189  0.2258049989477226  0.8927990954791328
  0.4686693894578476  0.8397124093024744  0.8530651112144902
  0.3526966912156734  0.5897578532974118  0.5032717642667602
  0.2132781295443652  0.6395221236220626  0.1838483195055362
  0.0568023913741878  0.3812046722574558  0.3387834948780653
  0.6257328855001794  0.7631514507512718  0.6364335007131059
  0.3398487766816979  0.9642931753683167  0.9770005314294609
  0.3678956731384377  0.0615048845154184  0.7613554319407535
  0.6740801298192867  0.6534067157165919  0.4234563892817376
  0.9308850286148498  0.3186593633878586  0.1089571688501187
  0.1812368592589770  0.2404341553560048  0.1882814092721280
  0.7869770811020235  1.0179710771032850  0.5007705203025670
  0.0405206514878558  0.8311568333463404  0.8612126963601746
  0.2391489156803195  0.2216213665451876  0.8814788996207592
  0.9795537250565026  0.8241807245553565  0.5520696339799687
  0.7928437074213993  0.0633349648923842  0.2490823948399486
  0.0359164081654967  0.4058607515819767  0.8795336208576524
  0.6128167617791973  0.6705828127542270  0.1881362897284465
  0.3923151100735076  0.9892681906234272  0.5724157507108558
  0.4081098381260961  0.0533835082733480  0.2541698868788506
  0.6510844130266484  0.6341234811036699  0.8669936221537028
  0.9390270935414834  0.4457866569409155  0.4848085506555327
 
             NaN             NaN             NaN
             NaN             NaN             NaN
             NaN             NaN             NaN
             NaN             NaN             NaN
             NaN             NaN             NaN
             NaN             NaN             NaN
             NaN             NaN             NaN
             NaN             NaN             NaN
             NaN             NaN             NaN
             NaN             NaN             NaN
             NaN             NaN             NaN
             NaN             NaN             NaN
             NaN             NaN             NaN
             NaN             NaN             NaN
             NaN             NaN             NaN
             NaN             NaN             NaN
             NaN             NaN             NaN
             NaN             NaN             NaN
             NaN             NaN             NaN
             NaN             NaN             NaN
             NaN             NaN             NaN
             NaN             NaN             NaN
             NaN             NaN             NaN
             NaN             NaN             NaN
             NaN             NaN             NaN
             NaN             NaN             NaN
             NaN             NaN             NaN
             NaN             NaN             NaN
             NaN             NaN             NaN
             NaN             NaN             NaN
             NaN             NaN             NaN
             NaN             NaN             NaN
             NaN             NaN             NaN
             NaN             NaN             NaN
             NaN             NaN             NaN
             NaN             NaN             NaN
             NaN             NaN             NaN
             NaN             NaN             NaN
             NaN             NaN             NaN
             NaN             NaN             NaN
             NaN             NaN             NaN
             NaN             NaN             NaN
             NaN             NaN             NaN
             NaN             NaN             NaN
             NaN             NaN             NaN
             NaN             NaN             NaN
             NaN             NaN             NaN
             NaN             NaN             NaN
             NaN             NaN             NaN
             NaN             NaN             NaN
             NaN             NaN             NaN
             NaN             NaN             NaN
             NaN             NaN             NaN
             NaN             NaN             NaN
             NaN             NaN             NaN
             NaN             NaN             NaN
             NaN             NaN             NaN
             NaN             NaN             NaN
             NaN             NaN             NaN
             NaN             NaN             NaN
             NaN             NaN             NaN
             NaN             NaN             NaN
