Ca8 V12 F42                             
   1.00000000000000     
     7.4849969999999999   -0.0439580000000000    0.0654800000000000
    -3.7859790000000002    6.5451430000000004   -0.1112010000000000
    -0.4522540000000000    0.4642520000000000   18.4348160000000014
   Ca   V    F 
     8    12    42
Direct
  0.8649826932773987  0.0083482536979642  0.8576471907162329
  0.4920837931289203  0.8719170016968305  0.6869648302830821
  0.8611197798038640  0.5251872386814320  0.3589450056302142
  0.6574278165799282  0.1966472603284910  0.0115799728426427
  0.8292286192080339 -0.0051719461569030  0.3572052496223329
  0.1956732321190583  0.6593178234234158  0.0246297797559850
  0.0017295042850967  0.0143391705021370  0.1042509980467649
  0.1899167552210864  0.1246928919469694  0.5449913797562178
  0.3161590350994747  0.0119135146401327  0.3588869541548166
  0.9877570658732914  0.3599837071480555  0.6897966921144824
  0.3511233411240987  0.4792203840754454  0.3049979173647324
  0.3456790489949093  0.0161828367935323  0.8446634792745641
  0.9975954992266531  0.3647433865099516  0.2016533761588320
  0.6590341418023685  0.6874227311239111  0.5213233032592536
  0.4901204501876585  0.8608032099405706  0.1982839473228870
  0.1620748017391272  0.6761915025451682  0.5223490349273976
  0.3422604736222455  0.5146477507303606  0.8473871386650810
  0.8469282982622081  0.5131185051892390  0.8482091499858637
  0.6715188530076748  0.1899904129871583  0.5178660746581182
  0.5089367905176881  0.3393443771032621  0.1982942538856997
  0.7344313709099866  0.2097727188502293  0.6247776325404256
  0.8769645229549627  0.5113213540056311  0.9574818672543643
  0.4920360298491258  0.3060844341929626  0.3147482296203286
  0.1779293529692432  0.7437912816250234  0.4141596035036755
  0.5105979091194144  0.8954342865218632  0.0866284324194350
  0.2769572578452638  0.5099982379057667  0.7403789285730439
  0.8428495516888148  0.0495307151260077  0.9755761850670016
  0.0199574928223780  0.8622334301795146  0.3103563592822436
  0.1044063228129847  0.2265662099098680  0.6346104616904571
  1.0010150986215522  0.7502593635630469  0.0771145796644035
  0.8183001799942456  0.0790313112755738  0.7439269760204590
  0.1604278446014007  0.1244694470579283  0.4187363751612263
  0.5186649946486217  0.3210475120643301  0.0899290203076292
  0.6154596812151889  0.1595452305781029  0.4070558482807505
  0.8552403009117381  0.4881786753933712  0.7426644363485375
  0.3488873458049999  0.5504799678558543  0.9526935001103723
  0.1462255593201147  0.6262550275969251  0.6299285258464382
  0.4753480461606329  0.8720185068268436  0.3104685783793046
  0.8088493919245106  0.4680318003869113  0.2308792994225886
  0.5458592173390070  0.3738850448800453  0.5312895003776777
  0.6453173129760146  0.2120374350618033  0.8657786454847567
  0.4581078427085019  0.8231468220035107  0.8290053064442866
  0.3595241162353732  0.5821936315400051  0.5110216308578736
  0.2022904269195377  0.6484751266258098  0.1785834517147411
  1.0141385855435423  0.3406099346821492  0.3173780954211018
  0.6445472614243256  0.7431533326555456  0.6233360693186452
  0.3392432339696911 -0.0306805322786933 -0.0433270813420525
  0.3649813459589836  0.0490561748329813  0.7379768580229595
  0.6974418104165422  0.6736631573436649  0.4093752774457514
  0.9617639094635552  0.3318233069541840  0.0891665238442671
  0.1863879897757459  0.2442870726928228  0.1872115426402397
  0.7855386305051026 -0.0006957595449924  0.4938652822487776
  0.0406795994842339  0.8185579049211799  0.8396092126585989
  0.2383765717428330  0.2103697978220596  0.8590195984424925
  0.9643664694892319  0.7824606645462092  0.5317159836363116
  0.7953613581666417  0.0634706508380690  0.2155459059045501
  0.0352131047601530  0.3955860200257252  0.8515061701443262
  0.6218957199351769  0.6797231269206980  0.2274409425781638
  0.3848587432841228  0.9643088479567092  0.5583385828687221
  0.3542263580742902  0.0325352123377076  0.1957244863799023
  0.6507278634391385  0.6248379213708674  0.8449445172917742
  0.9374429806709081  0.4167360540836894  0.4759473909113528
 
             NaN             NaN             NaN
             NaN             NaN             NaN
             NaN             NaN             NaN
             NaN             NaN             NaN
             NaN             NaN             NaN
             NaN             NaN             NaN
             NaN             NaN             NaN
             NaN             NaN             NaN
             NaN             NaN             NaN
             NaN             NaN             NaN
             NaN             NaN             NaN
             NaN             NaN             NaN
             NaN             NaN             NaN
             NaN             NaN             NaN
             NaN             NaN             NaN
             NaN             NaN             NaN
             NaN             NaN             NaN
             NaN             NaN             NaN
             NaN             NaN             NaN
             NaN             NaN             NaN
             NaN             NaN             NaN
             NaN             NaN             NaN
             NaN             NaN             NaN
             NaN             NaN             NaN
             NaN             NaN             NaN
             NaN             NaN             NaN
             NaN             NaN             NaN
             NaN             NaN             NaN
             NaN             NaN             NaN
             NaN             NaN             NaN
             NaN             NaN             NaN
             NaN             NaN             NaN
             NaN             NaN             NaN
             NaN             NaN             NaN
             NaN             NaN             NaN
             NaN             NaN             NaN
             NaN             NaN             NaN
             NaN             NaN             NaN
             NaN             NaN             NaN
             NaN             NaN             NaN
             NaN             NaN             NaN
             NaN             NaN             NaN
             NaN             NaN             NaN
             NaN             NaN             NaN
             NaN             NaN             NaN
             NaN             NaN             NaN
             NaN             NaN             NaN
             NaN             NaN             NaN
             NaN             NaN             NaN
             NaN             NaN             NaN
             NaN             NaN             NaN
             NaN             NaN             NaN
             NaN             NaN             NaN
             NaN             NaN             NaN
             NaN             NaN             NaN
             NaN             NaN             NaN
             NaN             NaN             NaN
             NaN             NaN             NaN
             NaN             NaN             NaN
             NaN             NaN             NaN
             NaN             NaN             NaN
             NaN             NaN             NaN
