Cr4 F14                                 
   1.00000000000000     
    -7.1687305568898774   -0.0318776750930971    0.0000136090716120
    -3.5645464353622511   -5.2997143905611184   -3.1512216819485133
    -3.5645521378139442   -5.2996565087380425    3.1511556599628974
   F    Cr
    14     4
Direct
  0.7497920735794882  0.3954374997604277  0.1047659502690074
  0.2497932244771941  0.6047822398909812  0.8954173402313156
  0.9583675694700916  0.8061204104202979  0.2640932613267286
  0.0426985366479828  0.1933649831628362  0.7355306349954815
  0.4582845671320242  0.7641432450498394  0.3061459506059741
  0.5426592590344921  0.2355385936150394  0.6933668666997238
  0.0548819783212366  0.5888071907568224  0.6675978762631480
  0.3078854292323843  0.4309604633637656  0.3316698244176394
  0.5548658101833115  0.1676133841371349  0.0887927262907208
  0.8078568531386149  0.8316586296476915  0.9310088787458451
  0.9448366535727540  0.4110842290602071  0.3327255953895175
  0.6920574880764556  0.5687272661327364  0.6686578533021955
  0.4448163308516288  0.8327218701767846  0.9110979344486898
  0.1920370015147825  0.1686666788557800  0.0687190377221718
  0.4998479789698285  0.0002023734384265 -0.0000477900664910
  0.9998881193834471  0.4999139176921054  0.5002062126218016
  0.9997178793991663  0.5001746883731191  0.0000822569229868
  0.4997132470151098  0.5000823364660048  0.0001695898135435
 
  0.00000000E+00  0.00000000E+00  0.00000000E+00
  0.00000000E+00  0.00000000E+00  0.00000000E+00
  0.00000000E+00  0.00000000E+00  0.00000000E+00
  0.00000000E+00  0.00000000E+00  0.00000000E+00
  0.00000000E+00  0.00000000E+00  0.00000000E+00
  0.00000000E+00  0.00000000E+00  0.00000000E+00
  0.00000000E+00  0.00000000E+00  0.00000000E+00
  0.00000000E+00  0.00000000E+00  0.00000000E+00
  0.00000000E+00  0.00000000E+00  0.00000000E+00
  0.00000000E+00  0.00000000E+00  0.00000000E+00
  0.00000000E+00  0.00000000E+00  0.00000000E+00
  0.00000000E+00  0.00000000E+00  0.00000000E+00
  0.00000000E+00  0.00000000E+00  0.00000000E+00
  0.00000000E+00  0.00000000E+00  0.00000000E+00
  0.00000000E+00  0.00000000E+00  0.00000000E+00
  0.00000000E+00  0.00000000E+00  0.00000000E+00
  0.00000000E+00  0.00000000E+00  0.00000000E+00
  0.00000000E+00  0.00000000E+00  0.00000000E+00
