Cr4 F20                                 
   1.00000000000000     
     7.6409933267752743    0.0004792878096784    0.0007680801699466
     0.0004326607122583    7.5244962495128931    0.0006086078876783
     0.0015198444905802    0.0003861398992562    5.4832453864720287
   Cr   F 
     4    20
Direct
  0.2578676197467473  0.9120564329117613  0.7499171603727817
  0.7422831960370431  0.0879999890540830  0.2499681134172107
  0.2576941596300415  0.5878747148197405  0.2498699904151991
  0.7421093723535392  0.4119709540662981  0.7500815875128453
  0.3440738086859270  0.7499316884355096  0.4999545722211138
  0.6558795984373091  0.2499355808765600  0.0000849302160475
  0.6558886611950427  0.2499805674556299  0.4999489525735896
  0.3440892638487867  0.7499891517331676  0.0001056453339459
  0.0788994436067583  0.7762817339764041  0.7500353287600845
  0.9211010587096666  0.2240039272211405  0.2500301147896238
  0.0788551948138050  0.7239726033116227  0.2500219576425309
  0.9211664985829202  0.2760640489710866  0.7499880547522650
  0.4713111560358172  0.9793086919696208  0.7500403150743793
  0.5288681660192225  0.0205972456393866  0.2499953464896834
  0.4712070730286300  0.5205976763488707  0.2500089133432724
  0.5286530835080114  0.4794949351480255  0.7499997530930571
  0.1872152348089884  0.0521654623250214  0.5230273231363043
  0.8129669642537110  0.9479713953380013  0.0229458937038203
  0.1869816403563433  0.4479596021948495  0.4771537583799912
  0.8128435686882653  0.5519844726370593  0.9769701066709544
  0.8129725822607838  0.9480066025958322  0.4770502104107450
  0.1871195129714280  0.0519678782636532  0.9769515492787733
  0.8128102001601150  0.5519896205881878  0.5230685379778279
  0.1871429422611044  0.4478950241184947  0.0227818844339609
 
  0.00000000E+00  0.00000000E+00  0.00000000E+00
  0.00000000E+00  0.00000000E+00  0.00000000E+00
  0.00000000E+00  0.00000000E+00  0.00000000E+00
  0.00000000E+00  0.00000000E+00  0.00000000E+00
  0.00000000E+00  0.00000000E+00  0.00000000E+00
  0.00000000E+00  0.00000000E+00  0.00000000E+00
  0.00000000E+00  0.00000000E+00  0.00000000E+00
  0.00000000E+00  0.00000000E+00  0.00000000E+00
  0.00000000E+00  0.00000000E+00  0.00000000E+00
  0.00000000E+00  0.00000000E+00  0.00000000E+00
  0.00000000E+00  0.00000000E+00  0.00000000E+00
  0.00000000E+00  0.00000000E+00  0.00000000E+00
  0.00000000E+00  0.00000000E+00  0.00000000E+00
  0.00000000E+00  0.00000000E+00  0.00000000E+00
  0.00000000E+00  0.00000000E+00  0.00000000E+00
  0.00000000E+00  0.00000000E+00  0.00000000E+00
  0.00000000E+00  0.00000000E+00  0.00000000E+00
  0.00000000E+00  0.00000000E+00  0.00000000E+00
  0.00000000E+00  0.00000000E+00  0.00000000E+00
  0.00000000E+00  0.00000000E+00  0.00000000E+00
  0.00000000E+00  0.00000000E+00  0.00000000E+00
  0.00000000E+00  0.00000000E+00  0.00000000E+00
  0.00000000E+00  0.00000000E+00  0.00000000E+00
  0.00000000E+00  0.00000000E+00  0.00000000E+00
