Ca2 Mn2 F10                             
   1.00000000000000     
    -4.0510150301635601   -3.2143756744829028    1.9577368313771411
     4.0532526118956866   -3.2174902758664472   -1.9581396114042822
     4.0600944389365354    3.2148721022072237    5.8223448490121621
   Ca   Mn   F 
     2     2    10
Direct
  0.2047584471936048  0.4548802268690224  0.7500084452252693
  0.7952332502521529  0.5450966810215618  0.2499841561966107
  0.5000240692854589  0.9999998921620517  0.5000004333627430
  0.0000256315228242  0.0000344959263785  0.9999864882243656
  0.7558355304579152  0.3090197770130345  0.4680467035708773
  0.3411894223383456  0.2879633491698428  0.0320472024901122
  0.2441410306360865  0.6909600289654136  0.5319624974331063
  0.6587919061752174  0.7120392915650910  0.9679617913926961
  0.3736332217835638  0.2082527955878533  0.6162627773468614
  0.0920436992779798  0.7574771285329902  0.8837299900684386
  0.6263708721865839  0.7917306536292514  0.3837347973416882
  0.9079552567017046  0.2425577157052743  0.1162817355611736
  0.8432289144810525  0.0931786395134111  0.7500832502246482
  0.1567687477075097  0.9068093243388233  0.2499097315614165
 
  0.00000000E+00  0.00000000E+00  0.00000000E+00
  0.00000000E+00  0.00000000E+00  0.00000000E+00
  0.00000000E+00  0.00000000E+00  0.00000000E+00
  0.00000000E+00  0.00000000E+00  0.00000000E+00
  0.00000000E+00  0.00000000E+00  0.00000000E+00
  0.00000000E+00  0.00000000E+00  0.00000000E+00
  0.00000000E+00  0.00000000E+00  0.00000000E+00
  0.00000000E+00  0.00000000E+00  0.00000000E+00
  0.00000000E+00  0.00000000E+00  0.00000000E+00
  0.00000000E+00  0.00000000E+00  0.00000000E+00
  0.00000000E+00  0.00000000E+00  0.00000000E+00
  0.00000000E+00  0.00000000E+00  0.00000000E+00
  0.00000000E+00  0.00000000E+00  0.00000000E+00
  0.00000000E+00  0.00000000E+00  0.00000000E+00
