Ca4 Fe4 F20                             
   1.00000000000000     
     5.1792435134160337   -0.0000002439048332   -1.8763379839217365
    -0.0000003794698052   10.0747132133185886    0.0000002395291532
     0.0007136284913946    0.0000001868072253    7.5851950086447175
   Ca   Fe   F 
     4     4    20
Direct
  0.5309692518857050  0.5202543588841787  0.7551959676856241
  0.4690313412841611  0.0202555077261095  0.7448039865172447
  0.4690313674021993  0.4797444694473386  0.2448039910337755
  0.5309692817310107  0.9797456540153930  0.2551959767336564
  0.1060020601456437  0.2536063442941835  0.8993717084213759
  0.8940018951625799  0.7536014446290871  0.6006283153121628
  0.8940021550304791  0.7463984322190296  0.1006285337425459
  0.1060023237078061  0.2463937825581063  0.3993719363737325
  0.3908076682290713  0.3805089634528155  0.9435212706325394
  0.6092192869049724  0.8805233069582094  0.5564778387142598
  0.6092193561193552  0.6194766804237128  0.0564778814662701
  0.3908077308595228  0.1194910507810751  0.4435213329562303
  0.3572124693384091  0.1128286461988280  0.9959975547205678
  0.6427580333193941  0.6128416109333541  0.5040045122708063
  0.6427579221132518  0.8871584162258627  0.0040045008719824
  0.3572123581341561  0.3871713273098644  0.4959975201604629
  0.1171235570881501  0.8972357313385112  0.6912882507264315
  0.8829226010654356  0.3972514029492553  0.8087203900112204
  0.8829225094394075  0.1027485423066629  0.3087202685720450
  0.1171234759068766  0.6027643263273167  0.1912881328339076
  0.1706308500501557  0.6368289478686208  0.6388602261356962
  0.8293262310423942  0.1368574275131329  0.8611345178797148
  0.8293262396948345  0.3631425522531396  0.3611345766454610
  0.1706308620690942  0.8631710717336598  0.1388602828694907
  0.1513743951228274  0.2019131257313158  0.6620964924335412
  0.8486201664486838  0.7019186452466510  0.8378987561519520
  0.8486201924107899  0.7980813455781200  0.3378987765075481
  0.1513744182936327  0.2980868850964379  0.1620965016197337
 
  0.00000000E+00  0.00000000E+00  0.00000000E+00
  0.00000000E+00  0.00000000E+00  0.00000000E+00
  0.00000000E+00  0.00000000E+00  0.00000000E+00
  0.00000000E+00  0.00000000E+00  0.00000000E+00
  0.00000000E+00  0.00000000E+00  0.00000000E+00
  0.00000000E+00  0.00000000E+00  0.00000000E+00
  0.00000000E+00  0.00000000E+00  0.00000000E+00
  0.00000000E+00  0.00000000E+00  0.00000000E+00
  0.00000000E+00  0.00000000E+00  0.00000000E+00
  0.00000000E+00  0.00000000E+00  0.00000000E+00
  0.00000000E+00  0.00000000E+00  0.00000000E+00
  0.00000000E+00  0.00000000E+00  0.00000000E+00
  0.00000000E+00  0.00000000E+00  0.00000000E+00
  0.00000000E+00  0.00000000E+00  0.00000000E+00
  0.00000000E+00  0.00000000E+00  0.00000000E+00
  0.00000000E+00  0.00000000E+00  0.00000000E+00
  0.00000000E+00  0.00000000E+00  0.00000000E+00
  0.00000000E+00  0.00000000E+00  0.00000000E+00
  0.00000000E+00  0.00000000E+00  0.00000000E+00
  0.00000000E+00  0.00000000E+00  0.00000000E+00
  0.00000000E+00  0.00000000E+00  0.00000000E+00
  0.00000000E+00  0.00000000E+00  0.00000000E+00
  0.00000000E+00  0.00000000E+00  0.00000000E+00
  0.00000000E+00  0.00000000E+00  0.00000000E+00
  0.00000000E+00  0.00000000E+00  0.00000000E+00
  0.00000000E+00  0.00000000E+00  0.00000000E+00
  0.00000000E+00  0.00000000E+00  0.00000000E+00
  0.00000000E+00  0.00000000E+00  0.00000000E+00
