Calcium hexafluorotitanate              
   1.00000000000000     
     5.7137637939043069    0.0000082580409618   -0.0000121762483320
    -2.8569025070016871    4.9482425745245298   -0.0000112076234671
    -0.0000306438974706   -0.0000502096963600   14.3845571188062067
   Ca   Ti   F 
     3     3    18
Direct
  0.0000000055136837  0.0000000118602372  0.0000005457186703
  0.6666666629020952  0.3333333275228085  0.3333338901000005
  0.3333333168031558  0.6666666520053752  0.6666672238141089
  0.0000001079866934  0.0000000094526058  0.5000042369120976
  0.6666665966220791  0.3333333008770154  0.8333374971115646
  0.3333333353086871  0.6666667911350999  0.1666708811193018
  0.1147580911149362  0.3631825862400291  0.0905314821211860
  0.8852373279692500  0.6368113201599783  0.9094669397292705
  0.6368153505646532  0.7515710523685044  0.0905322772840975
  0.3631907885747765  0.2484304703901969  0.9094661272692690
  0.2484274439388798  0.8852488711223856  0.0905317174545530
  0.7515710436932324  0.1147556855558420  0.9094667091983339
  0.7814247727618593  0.6965159038828688  0.4238648308064938
  0.5519039624480371  0.9701445617052613  0.2428002592267262
  0.3034819918835794  0.0849043992795657  0.4238656287511375
  0.0298574921802910  0.5817637947761867  0.2427994547315535
  0.9150940933213150  0.2185822517397185  0.4238650418285914
  0.4182377046045289  0.4480890284345023  0.2428000446440493
  0.4480914793817448  0.0298493206862886  0.7571981793831029
  0.2185705981915547  0.3034779194033987  0.5761336129876824
  0.9701486456245902  0.4182377041976153  0.7571989633139324
  0.6965240946189937  0.9150971465031574  0.5761328128801182
  0.5817607778222609  0.5519155367180417  0.7571984051428871
  0.0849043631691089  0.7814224009833168  0.5761333854712518
 
  0.00000000E+00  0.00000000E+00  0.00000000E+00
  0.00000000E+00  0.00000000E+00  0.00000000E+00
  0.00000000E+00  0.00000000E+00  0.00000000E+00
  0.00000000E+00  0.00000000E+00  0.00000000E+00
  0.00000000E+00  0.00000000E+00  0.00000000E+00
  0.00000000E+00  0.00000000E+00  0.00000000E+00
  0.00000000E+00  0.00000000E+00  0.00000000E+00
  0.00000000E+00  0.00000000E+00  0.00000000E+00
  0.00000000E+00  0.00000000E+00  0.00000000E+00
  0.00000000E+00  0.00000000E+00  0.00000000E+00
  0.00000000E+00  0.00000000E+00  0.00000000E+00
  0.00000000E+00  0.00000000E+00  0.00000000E+00
  0.00000000E+00  0.00000000E+00  0.00000000E+00
  0.00000000E+00  0.00000000E+00  0.00000000E+00
  0.00000000E+00  0.00000000E+00  0.00000000E+00
  0.00000000E+00  0.00000000E+00  0.00000000E+00
  0.00000000E+00  0.00000000E+00  0.00000000E+00
  0.00000000E+00  0.00000000E+00  0.00000000E+00
  0.00000000E+00  0.00000000E+00  0.00000000E+00
  0.00000000E+00  0.00000000E+00  0.00000000E+00
  0.00000000E+00  0.00000000E+00  0.00000000E+00
  0.00000000E+00  0.00000000E+00  0.00000000E+00
  0.00000000E+00  0.00000000E+00  0.00000000E+00
  0.00000000E+00  0.00000000E+00  0.00000000E+00
