Ca2 Ti2 F10                             
   1.00000000000000     
    -4.1518052887493750   -3.3165964968262722   -1.9322516329120558
    -4.1518052251775064    3.3165963602521149   -1.9322515719728961
    -0.0022426395624651   -0.0000001342984224   -7.7474905072388127
   Ca   Ti   F 
     2     2    10
Direct
  0.4573059529072339  0.5426880199970583  0.7500005022537550
  0.5426880168014634  0.4573059507306070  0.2500004961987443
  0.9999630776519624  0.9999799828539579  0.5000100687852651
  0.9999799883522158  0.9999630841803864  0.0000100674057535
  0.0956542936591731  0.9043560142798270  0.7500043440744264
  0.9043560229197070  0.0956543088121151  0.2500043354545696
  0.3141931060898315  0.7079065505376647  0.0308389665211593
  0.7079065239993483  0.3141930952630503  0.5308389601895414
  0.6857973772158346  0.2921181368732704  0.9691634455245577
  0.2921181612202446  0.6857973815298948  0.4691634554499586
  0.7889628923207539  0.7460998272188917  0.1202025724583891
  0.7460997777061991  0.7889629352883958  0.6202026098683078
  0.2110885540550598  0.2538862102755246  0.8797801084331311
  0.2538862551009728  0.2110885021593631  0.3797800673824483
 
  0.00000000E+00  0.00000000E+00  0.00000000E+00
  0.00000000E+00  0.00000000E+00  0.00000000E+00
  0.00000000E+00  0.00000000E+00  0.00000000E+00
  0.00000000E+00  0.00000000E+00  0.00000000E+00
  0.00000000E+00  0.00000000E+00  0.00000000E+00
  0.00000000E+00  0.00000000E+00  0.00000000E+00
  0.00000000E+00  0.00000000E+00  0.00000000E+00
  0.00000000E+00  0.00000000E+00  0.00000000E+00
  0.00000000E+00  0.00000000E+00  0.00000000E+00
  0.00000000E+00  0.00000000E+00  0.00000000E+00
  0.00000000E+00  0.00000000E+00  0.00000000E+00
  0.00000000E+00  0.00000000E+00  0.00000000E+00
  0.00000000E+00  0.00000000E+00  0.00000000E+00
  0.00000000E+00  0.00000000E+00  0.00000000E+00
