Calcium-alpha                           
   1.00000000000000     
     5.5451094810135473    0.0000150745060284   -0.0000274519325274
     0.0000150834748877    5.5451981012576024    0.0000481634976893
    -0.0000274513209284    0.0000481542150188    5.5452404432448450
   Ca
     4
Direct
  0.0000000732336155  0.0000019879144496  0.0000003357542868
  0.0000002375089970  0.4999998764471518  0.4999998803909516
  0.4999998570584066 -0.0000008664676968  0.4999999725464968
  0.4999998321989809  0.4999990021060953 -0.0000001886917351
 
  0.00000000E+00  0.00000000E+00  0.00000000E+00
  0.00000000E+00  0.00000000E+00  0.00000000E+00
  0.00000000E+00  0.00000000E+00  0.00000000E+00
  0.00000000E+00  0.00000000E+00  0.00000000E+00
