Fe4 F12                                 
   1.00000000000000     
     5.3398112139704565    0.0000000378239493    0.0000000234038686
     0.0000000552303824    7.4047745692470786   -0.0000000286435884
     0.0000000238985494   -0.0000000247727029    5.0975912110543664
   Fe   F 
     4    12
Direct
  0.0000004772554202 -0.0000014210338454  0.4999929323342844
  0.5000005032042512  0.5000014403213910  0.0000070558139347
  0.0000003605155725  0.5000013779060161  0.4999928154155637
  0.5000003690926655 -0.0000013862373419  0.0000071670459125
  0.9779158194411475  0.2499999849081021  0.3935219363281620
  0.4779158379701030  0.2500000166084453  0.1064780695987316
  0.0220845524688135  0.7499999803085111  0.6064797433709228
  0.5220845410313087  0.7500000122760132  0.8935202484142559
  0.8019448440703376  0.0529216685301623  0.8071613213172217
  0.3019448852778704  0.4470783255844665  0.6928386671741642
  0.1980545161889896  0.5529186512090299  0.1928354312241786
  0.6980545143031417  0.9470813534198975  0.3071645741071355
  0.1980545557508847  0.9470813489050041  0.1928354049432564
  0.6980545514191333  0.5529186577222746  0.3071646226729733
  0.8019448333322660  0.4470783277146895  0.8071614014204250
  0.3019448386780875  0.0529216618571771  0.6928386088188848
 
  0.00000000E+00  0.00000000E+00  0.00000000E+00
  0.00000000E+00  0.00000000E+00  0.00000000E+00
  0.00000000E+00  0.00000000E+00  0.00000000E+00
  0.00000000E+00  0.00000000E+00  0.00000000E+00
  0.00000000E+00  0.00000000E+00  0.00000000E+00
  0.00000000E+00  0.00000000E+00  0.00000000E+00
  0.00000000E+00  0.00000000E+00  0.00000000E+00
  0.00000000E+00  0.00000000E+00  0.00000000E+00
  0.00000000E+00  0.00000000E+00  0.00000000E+00
  0.00000000E+00  0.00000000E+00  0.00000000E+00
  0.00000000E+00  0.00000000E+00  0.00000000E+00
  0.00000000E+00  0.00000000E+00  0.00000000E+00
  0.00000000E+00  0.00000000E+00  0.00000000E+00
  0.00000000E+00  0.00000000E+00  0.00000000E+00
  0.00000000E+00  0.00000000E+00  0.00000000E+00
  0.00000000E+00  0.00000000E+00  0.00000000E+00
