Ca8 V12 F42
1.0
7.509787 -0.016244 0.050672
-3.774615 6.510922 -0.085788
-0.489059 0.509990 18.232096
Ca V F
8 12 42
direct
0.956037 0.825777 0.682592 Ca
0.479253 0.827832 0.677342 Ca
0.841214 0.483392 0.331942 Ca
0.657870 0.135039 0.977198 Ca
0.818029 0.978746 0.335400 Ca
0.152484 0.619085 0.995796 Ca
0.015775 0.858258 0.156403 Ca
0.200941 0.166161 0.503760 Ca
0.321948 0.995240 0.329747 V
0.980514 0.307147 0.668629 V
0.672580 0.663718 0.996543 V
0.321602 0.990510 0.827098 V
0.994626 0.329066 0.169042 V
0.666083 0.667305 0.500482 V
0.497155 0.828225 0.166768 V
0.160827 0.659873 0.499549 V
0.330055 0.489683 0.833010 V
0.823603 0.490767 0.828362 V
0.666483 0.160341 0.498192 V
0.505728 0.335043 0.164622 V
0.715820 0.157451 0.607525 F
0.791248 0.507839 0.939664 F
0.485280 0.277765 0.275801 F
0.166783 0.725733 0.389015 F
0.520645 0.808053 0.053992 F
0.249774 0.456992 0.725798 F
0.778578 0.935194 0.946221 F
0.018286 0.835344 0.278306 F
0.089054 0.140887 0.615438 F
0.961324 0.762401 0.043706 F
0.817932 0.017501 0.721299 F
0.152682 0.099847 0.385050 F
0.559515 0.384696 0.054791 F
0.610503 0.139151 0.384305 F
0.873420 0.478321 0.718211 F
0.397772 0.549076 0.942899 F
0.150850 0.596729 0.611041 F
0.484964 0.871553 0.278362 F
0.817025 0.458401 0.192013 F
0.555296 0.355365 0.511593 F
0.624548 0.189792 0.850455 F
0.412536 0.784868 0.805428 F
0.346866 0.534750 0.488043 F
0.188256 0.636349 0.140391 F
0.984182 0.307572 0.286234 F
0.653681 0.708337 0.612645 F
0.324078 0.927714 0.939218 F
0.305436 0.987489 0.711186 F
0.708962 0.656635 0.387418 F
0.935248 0.314248 0.054511 F
0.192903 0.220366 0.151217 F
0.791166 0.979544 0.471710 F
0.018794 0.793462 0.808464 F
0.249714 0.201490 0.849644 F
0.976593 0.783805 0.522880 F
0.811037 0.015771 0.189178 F
0.060096 0.457722 0.873400 F
0.608424 0.635102 0.181872 F
0.370505 0.954172 0.530584 F
0.391940 0.027986 0.146408 F
0.605364 0.552677 0.794604 F
0.939352 0.385384 0.457337 F
