V12 F42                                 
   1.00000000000000     
     7.3767795097738977   -0.0216365346210406   -0.1134701684113255
    -3.6931945649418223    6.3924751339164585    0.0676814104996533
     0.2454079562084741   -0.0623917467423620   17.3566776845798216
   V    F 
    12    42
Direct
  0.2827026422776073  0.9979526448373311  0.3333594890351679
  0.7154938679827608  0.7152284053072968  0.9996731341410373
  0.0008380939219787  0.2864542610804176  0.6668024565854215
  0.3506760291204174  0.0001684730043170  0.8325038739837376
  0.6535626677499794  0.6533855437470590  0.5001099239785819
  0.0002608092375023  0.3512656240942024  0.1674313824790327
  0.6484207566024204  0.1511707716498256  0.4992040115713901
  0.5005518535692707  0.3529139034507109  0.1661766978010401
  0.8519650014958702  0.4995154794776037  0.8334242011100567
  0.3520775091568396  0.5009545239096036  0.8339824033553259
  0.1511942586195330  0.6482270064811316  0.5005688868990938
  0.4997218135733713  0.8529979530019705  0.1664588546579079
  0.5795486983328904  0.8302939585900370  0.0600971955315692
  0.2519007094541943  0.4385683921193523  0.7268495450187195
  0.1821080967132944  0.7482417535113940  0.3936588302128727
  0.4315231994348273  0.2470249863743714  0.2721671588267083
  0.8279011544751596  0.5757152656905019  0.9397199636532083
  0.7509212313519237  0.1851363372477525  0.6059448261935028
  0.8947921953217194  0.0694726087158541  0.7294737944149655
  0.1787371423632187  0.1076740420554759  0.3972365958202012
  0.9187968838570342  0.8016696249194740  0.0677879737523032
  0.1100448219395204  0.1793490225780759  0.6034444825591616
  0.0630506815348028  0.8907773033334995  0.2710121348463340
  0.7991100667300646  0.9147325963645835  0.9305821094677417
  0.1122714049000653  0.5419019315393452  0.6065372286883218
  0.4195750103897162  0.8820289033964591  0.2720219938473623
  0.4554138107810586  0.5629192929475905  0.9401170076216112
  0.8849268605138090  0.4253183606020477  0.7281811900747209
  0.5409762323552295  0.1109519301104201  0.3937271471323436
  0.5683230974684996  0.4577107752546229  0.0609142590267867
  0.3634447404121265  0.5687382849416613  0.4807413130477837
  0.2091816129453228  0.6361224119368457  0.1425458885302157
  0.4363066046617576  0.7953326663576002  0.8156795588168029
  0.6380817997919311  0.2080450859630983  0.8553195129519076
  0.5690139538842635  0.3635026471665005  0.5193594560064331
  0.7953351738637622  0.4370502277448819  0.1840857447390571
  0.6890071588545940  0.6165209953439322  0.4019527388084920
  0.9254079789321609  0.3023408724685359  0.0695357866424408
  0.3936706421954284  0.0725100887452112  0.7345223874986249
  0.3070696712420326  0.9280670837703325  0.9306946887649445
  0.6179582622356813  0.6887423164584614  0.5984040509689355
  0.0763700821421829  0.3988164637454985  0.2651388626503314
  0.9417463842052769  0.7327470324405984  0.5199174145057168
  0.7906081920591370  0.0664091716400427  0.1915105947142543
  0.2652407557994735  0.2049457485551726  0.8502763151380133
  0.0633758909950762  0.7915890211053753  0.8105407502541094
  0.7331721931774381  0.9410669460742317  0.4803682865394742
  0.2045187583875595  0.2647526536556171  0.1500056452186144
  0.6287467510857486  0.5532021828980641  0.8016062150644622
  0.9267496937188368  0.3724433123445158  0.4673078081892930
  0.4479576620526480  0.0751989062422919  0.1342839227352199
  0.3730758645985737  0.9258510027493636  0.5327898444107856
  0.5517201069666777  0.6303172262975916  0.1982138082854634
  0.0748534645676895  0.4459659759622749  0.8661306532324208
 
  0.00000000E+00  0.00000000E+00  0.00000000E+00
  0.00000000E+00  0.00000000E+00  0.00000000E+00
  0.00000000E+00  0.00000000E+00  0.00000000E+00
  0.00000000E+00  0.00000000E+00  0.00000000E+00
  0.00000000E+00  0.00000000E+00  0.00000000E+00
  0.00000000E+00  0.00000000E+00  0.00000000E+00
  0.00000000E+00  0.00000000E+00  0.00000000E+00
  0.00000000E+00  0.00000000E+00  0.00000000E+00
  0.00000000E+00  0.00000000E+00  0.00000000E+00
  0.00000000E+00  0.00000000E+00  0.00000000E+00
  0.00000000E+00  0.00000000E+00  0.00000000E+00
  0.00000000E+00  0.00000000E+00  0.00000000E+00
  0.00000000E+00  0.00000000E+00  0.00000000E+00
  0.00000000E+00  0.00000000E+00  0.00000000E+00
  0.00000000E+00  0.00000000E+00  0.00000000E+00
  0.00000000E+00  0.00000000E+00  0.00000000E+00
  0.00000000E+00  0.00000000E+00  0.00000000E+00
  0.00000000E+00  0.00000000E+00  0.00000000E+00
  0.00000000E+00  0.00000000E+00  0.00000000E+00
  0.00000000E+00  0.00000000E+00  0.00000000E+00
  0.00000000E+00  0.00000000E+00  0.00000000E+00
  0.00000000E+00  0.00000000E+00  0.00000000E+00
  0.00000000E+00  0.00000000E+00  0.00000000E+00
  0.00000000E+00  0.00000000E+00  0.00000000E+00
  0.00000000E+00  0.00000000E+00  0.00000000E+00
  0.00000000E+00  0.00000000E+00  0.00000000E+00
  0.00000000E+00  0.00000000E+00  0.00000000E+00
  0.00000000E+00  0.00000000E+00  0.00000000E+00
  0.00000000E+00  0.00000000E+00  0.00000000E+00
  0.00000000E+00  0.00000000E+00  0.00000000E+00
  0.00000000E+00  0.00000000E+00  0.00000000E+00
  0.00000000E+00  0.00000000E+00  0.00000000E+00
  0.00000000E+00  0.00000000E+00  0.00000000E+00
  0.00000000E+00  0.00000000E+00  0.00000000E+00
  0.00000000E+00  0.00000000E+00  0.00000000E+00
  0.00000000E+00  0.00000000E+00  0.00000000E+00
  0.00000000E+00  0.00000000E+00  0.00000000E+00
  0.00000000E+00  0.00000000E+00  0.00000000E+00
  0.00000000E+00  0.00000000E+00  0.00000000E+00
  0.00000000E+00  0.00000000E+00  0.00000000E+00
  0.00000000E+00  0.00000000E+00  0.00000000E+00
  0.00000000E+00  0.00000000E+00  0.00000000E+00
  0.00000000E+00  0.00000000E+00  0.00000000E+00
  0.00000000E+00  0.00000000E+00  0.00000000E+00
  0.00000000E+00  0.00000000E+00  0.00000000E+00
  0.00000000E+00  0.00000000E+00  0.00000000E+00
  0.00000000E+00  0.00000000E+00  0.00000000E+00
  0.00000000E+00  0.00000000E+00  0.00000000E+00
  0.00000000E+00  0.00000000E+00  0.00000000E+00
  0.00000000E+00  0.00000000E+00  0.00000000E+00
  0.00000000E+00  0.00000000E+00  0.00000000E+00
  0.00000000E+00  0.00000000E+00  0.00000000E+00
  0.00000000E+00  0.00000000E+00  0.00000000E+00
  0.00000000E+00  0.00000000E+00  0.00000000E+00
