Manganese - gamma, HT                   
   1.00000000000000     
     6.3287301652096106   -0.0000000065204165    0.0000001009529822
    -0.0000000029208512    3.1643699904571339    0.0000000065146029
     0.0000000505188946    0.0000000063307716    3.1643418798939003
   Mn
     4
Direct
  0.0000004492892273  0.0000000149286719  0.0000000212406805
  0.2500013050848190  0.5000000298672891  0.4999999974869367
  0.4999995032423361 -0.0000000050608697 -0.0000000209724725
  0.7499987423836176  0.4999999602649086  0.5000000022448552
 
  0.00000000E+00  0.00000000E+00  0.00000000E+00
  0.00000000E+00  0.00000000E+00  0.00000000E+00
  0.00000000E+00  0.00000000E+00  0.00000000E+00
  0.00000000E+00  0.00000000E+00  0.00000000E+00
