Ca6 Mn12 F42                            
   1.00000000000000     
     7.4778871581627202   -0.1979157095481072    0.1418461494910860
    -3.9128162235495267    6.5139405426790669   -0.1379419565193074
     0.0297866393942696   -0.1472049648596586   18.4304725472765654
   Ca   Mn   F 
     6    12    42
Direct
  0.4791442223950985  0.8579155194493614  0.6550892328247467
  0.9051913665306691  0.0806352326623988  0.3501521363913322
  0.1616695691115965  0.1587997920714960  0.0201452139559985
  0.8216812023206047  0.0077875630519905  0.8370552377508207
  0.0457531249110654  0.7846507297944780  0.1744426507608278
  0.2074209043218185  0.1396815064840889  0.5199985838652095
  0.3209651910690865 -0.0008556469608856  0.3329879277830760
  0.0002912488439422  0.3479210431157890  0.6716460721975994
  0.6737983229278801  0.6587065134755126  0.0029117188868463
  0.3232244001089413  0.0145237323307843  0.8339462912615037
  0.0075564946555416  0.2957474951401696  0.1809076475064923
  0.6837645908368890  0.6914308007335168  0.4915152987480695
  0.5166959228976412  0.8188398358963881  0.1669755782311954
  0.1620547743806178  0.6515877865660760  0.4902104544896294
  0.3258509701279332  0.5107807469284267  0.8385636749929003
  0.8275594658752756  0.5106611635724595  0.8336850169640382
  0.6888497103913132  0.1817340736096586  0.4939677534278787
  0.5213338861216701  0.3224934843916292  0.1698275757065921
  0.7522793607505315  0.2010714089270717  0.6046372704909505
  0.7854747602044512  0.5426877214264739  0.9442546251268397
  0.4726570540630599  0.2324987701498680  0.2778116306829407
  0.1771276520776396  0.7730476385063898  0.3916818496920560
  0.5622234726493964  0.7801898569792366  0.0575793331959447
  0.2659892003280119  0.5413969963058251  0.7247320707984340
  0.8490373926275788  0.9371053893364387  0.9511673609834277
  0.0491190886332950  0.9312889586662495  0.2818396667867164
  0.1303607178516747  0.2290950148391132  0.6237720553808068
  0.9466482049469717  0.8114867461676202  0.0625866779716036
  0.7984932176524840  0.0645439731774402  0.7206833501701924
  0.2236218953500019  0.1427638414408512  0.4002887529799735
  0.5130522853581754  0.3942028997949821  0.0613758512286492
  0.5891109834494959  0.0605337373715430  0.3862472669422236
  0.8766770448199563  0.4647878069347794  0.7231273703237133
  0.3890538451036185  0.4837768726245758  0.9492342323737116
  0.1534021239583731  0.5901146490839929  0.6000602423088883
  0.3286023925891271  0.8214910721348564  0.2574153520020869
  0.8365637329167699  0.4297782693071295  0.1890556251813138
  0.5690466699941177  0.3728262127392579  0.5033590579286051
  0.6127903463243066  0.2041243741767846  0.8365798111054097
  0.4436845393142441  0.8250788189808831  0.8497556057894257
  0.3944066096940108  0.5866371500834957  0.4740634724202192
  0.2109258862483547  0.5706206862183486  0.1425434801959216
  0.1096604078637030  0.3628743130904689  0.2735897188677604
  0.6256223425806210  0.7132808659383227  0.5886552737098881
  0.2975467180398226  0.0510862294085701  0.9330676637160922
  0.3450952188657046  0.9816182976776046  0.7333723277484150
  0.7455032369165863  0.7270312871805393  0.3945905775068939
  0.9109450672229548  0.2014332269045091  0.0882992930122863
  0.1822312735178948  0.1698553912975584  0.1542200226769510
  0.8502326726237244  0.0192680714270829  0.4877219919014587
  0.0345604842884499  0.8191417128948676  0.8298181858541159
  0.1991533497830025  0.1985135395878257  0.8155869351718692
  0.9685057505762845  0.7698726648069036  0.5167320986388402
  0.7732367403227934  0.0449194505927017  0.2288095894958579
  0.0031824638465691  0.3779548387365699  0.8585046168367860
  0.6574932908453758  0.6471539428312688  0.1851526733873274
  0.3845186249911481  0.9601561128583670  0.5380603398095024
  0.4055892073131582  0.0096911868167714  0.1349381283293229
  0.6438943129740093  0.6379871983706950  0.8131775831898402
  0.9688749896950005  0.3699714628928617  0.4389895573419831
 
  0.00000000E+00  0.00000000E+00  0.00000000E+00
  0.00000000E+00  0.00000000E+00  0.00000000E+00
  0.00000000E+00  0.00000000E+00  0.00000000E+00
  0.00000000E+00  0.00000000E+00  0.00000000E+00
  0.00000000E+00  0.00000000E+00  0.00000000E+00
  0.00000000E+00  0.00000000E+00  0.00000000E+00
  0.00000000E+00  0.00000000E+00  0.00000000E+00
  0.00000000E+00  0.00000000E+00  0.00000000E+00
  0.00000000E+00  0.00000000E+00  0.00000000E+00
  0.00000000E+00  0.00000000E+00  0.00000000E+00
  0.00000000E+00  0.00000000E+00  0.00000000E+00
  0.00000000E+00  0.00000000E+00  0.00000000E+00
  0.00000000E+00  0.00000000E+00  0.00000000E+00
  0.00000000E+00  0.00000000E+00  0.00000000E+00
  0.00000000E+00  0.00000000E+00  0.00000000E+00
  0.00000000E+00  0.00000000E+00  0.00000000E+00
  0.00000000E+00  0.00000000E+00  0.00000000E+00
  0.00000000E+00  0.00000000E+00  0.00000000E+00
  0.00000000E+00  0.00000000E+00  0.00000000E+00
  0.00000000E+00  0.00000000E+00  0.00000000E+00
  0.00000000E+00  0.00000000E+00  0.00000000E+00
  0.00000000E+00  0.00000000E+00  0.00000000E+00
  0.00000000E+00  0.00000000E+00  0.00000000E+00
  0.00000000E+00  0.00000000E+00  0.00000000E+00
  0.00000000E+00  0.00000000E+00  0.00000000E+00
  0.00000000E+00  0.00000000E+00  0.00000000E+00
  0.00000000E+00  0.00000000E+00  0.00000000E+00
  0.00000000E+00  0.00000000E+00  0.00000000E+00
  0.00000000E+00  0.00000000E+00  0.00000000E+00
  0.00000000E+00  0.00000000E+00  0.00000000E+00
  0.00000000E+00  0.00000000E+00  0.00000000E+00
  0.00000000E+00  0.00000000E+00  0.00000000E+00
  0.00000000E+00  0.00000000E+00  0.00000000E+00
  0.00000000E+00  0.00000000E+00  0.00000000E+00
  0.00000000E+00  0.00000000E+00  0.00000000E+00
  0.00000000E+00  0.00000000E+00  0.00000000E+00
  0.00000000E+00  0.00000000E+00  0.00000000E+00
  0.00000000E+00  0.00000000E+00  0.00000000E+00
  0.00000000E+00  0.00000000E+00  0.00000000E+00
  0.00000000E+00  0.00000000E+00  0.00000000E+00
  0.00000000E+00  0.00000000E+00  0.00000000E+00
  0.00000000E+00  0.00000000E+00  0.00000000E+00
  0.00000000E+00  0.00000000E+00  0.00000000E+00
  0.00000000E+00  0.00000000E+00  0.00000000E+00
  0.00000000E+00  0.00000000E+00  0.00000000E+00
  0.00000000E+00  0.00000000E+00  0.00000000E+00
  0.00000000E+00  0.00000000E+00  0.00000000E+00
  0.00000000E+00  0.00000000E+00  0.00000000E+00
  0.00000000E+00  0.00000000E+00  0.00000000E+00
  0.00000000E+00  0.00000000E+00  0.00000000E+00
  0.00000000E+00  0.00000000E+00  0.00000000E+00
  0.00000000E+00  0.00000000E+00  0.00000000E+00
  0.00000000E+00  0.00000000E+00  0.00000000E+00
  0.00000000E+00  0.00000000E+00  0.00000000E+00
  0.00000000E+00  0.00000000E+00  0.00000000E+00
  0.00000000E+00  0.00000000E+00  0.00000000E+00
  0.00000000E+00  0.00000000E+00  0.00000000E+00
  0.00000000E+00  0.00000000E+00  0.00000000E+00
  0.00000000E+00  0.00000000E+00  0.00000000E+00
  0.00000000E+00  0.00000000E+00  0.00000000E+00
