Titanium - alpha                        
   1.00000000000000     
     5.8317277373107217   -0.0007575773506765   -0.0000000391658441
    -1.4582599759082728    2.5251919520718715    0.0000000249091208
    -0.0000000307795442    0.0000000275627450    4.6230000663795607
   Ti
     4
Direct
  0.1666736790327115  0.6666685258160964  0.2499999988290413
  0.8333310410381682  0.3333363147973936  0.7499999956019343
  0.6666696241904109  0.6666637612883121  0.2500000033681408
  0.3333256107387020  0.3333313680981955  0.7500000022008837
 
  0.00000000E+00  0.00000000E+00  0.00000000E+00
  0.00000000E+00  0.00000000E+00  0.00000000E+00
  0.00000000E+00  0.00000000E+00  0.00000000E+00
  0.00000000E+00  0.00000000E+00  0.00000000E+00
