Ca8 V12 F42                             
   1.00000000000000     
     7.4899550000000001   -0.0384150000000000    0.0625180000000000
    -3.7837060000000000    6.5382990000000003   -0.1061190000000000
    -0.4596150000000000    0.4734000000000000   18.3942720000000008
   Ca   V    F 
     8    12    42
Direct
  0.8396268578297189  0.9763147698411486  0.8294369366220585
  0.5108485868786249  0.8649935942903648  0.6481327409406461
  0.8476286983043968  0.4948533676511676  0.3201158515886177
  0.6493890840042116  0.1859514697585291  0.9836007203905840
  0.8429398517462983  0.9951891765190254  0.3361113994499457
  0.1681404903973613  0.6636362073373850  0.9841412098897465
  0.9871881919220635  0.8671033615811571  0.1426682961852462
 -0.0007202427780070  0.8257732204352316  0.6395280723201265
  0.3233909104194501  0.0115470595043535  0.3221273823574519
  1.0359774577510155  0.3085135128902284  0.6572137130719853
  0.4791480333697608  0.3484723277924213  0.6282590955460103
  0.3371194637612674  1.0002818200337786  0.8034782124676435
  0.9868457834704756  0.3481585306571018  0.1616654044871227
  0.6642187762767580  0.6584682339156531  0.4842904215598126
  0.4843145241086236  0.8506108820560155  0.1614819362443507
  0.1721532473770999  0.6638162569451702  0.4876187762348789
  0.3285155718226338  0.4930342285796245  0.8103546525840840
  0.8232971790198402  0.4904833084424814  0.8013234639770110
  0.6761945655313244  0.1656792534081068  0.4884047066576291
  0.4896784265761964  0.3477063020635079  0.1605911096160995
  0.7607872298941551  0.1769414495036913  0.5983644694340676
  0.8737736596619748  0.4813207505414089  0.9101749479733311
  0.4790216818866150  0.2933662274900845  0.2698451824543536
  0.1767396093696079  0.7413332182760355  0.3793844696332060
  0.4696730570378201  0.8669030816278988  0.0519087199578938
  0.3425137054940144  0.4440869583160436  0.7009703042217679
  0.8055785863392317  0.0393510523330512  0.9359177662378202
  0.0140435340110846  0.8492415461168348  0.2671153097500832
  0.1644955896591851  0.1809448415854455  0.5929510882651829
  0.0180732487073009  0.8120633960422771  0.0342649012615897
  0.8564552862471855 -0.0022549585106650  0.6993302900398403
  0.1617997820596375  0.1045415126163080  0.3758518431191145
  0.5412433034819613  0.3457690849468539  0.0572385843674955
  0.6020809581019824  0.1552203652882554  0.3791080522487731
  0.7623540058244568  0.4943046630450397  0.6868236225322890
  0.3038583536643045  0.5370609477294708  0.9121876971082954
  0.1604104221444308  0.6114352048761984  0.6125950559518254
  0.5078396117386401  0.8988815023762426  0.2720561900861185
  0.7976885070405006  0.4635898772490875  0.1855457927840609
  0.5856035530334177  0.3634857875963491  0.5221816614019981
  0.6498859951255820  0.1783576852144305  0.8132650352772822
  0.4409069797643487  0.7985017078200808  0.7721186430555105
  0.3670791090238768  0.5649043348888628  0.4704042736600348
  0.1813504963990120  0.6507509687621159  0.1652951420180524
  0.9701754000067960  0.3008964746787036  0.2743950178638735
  0.6277803339444800  0.6739174896697798  0.5969771807057450
  0.3495929905463345  0.9622549684702217  0.9125646435824628
  0.3527099434666939  0.0472583327292239  0.6828966201740952
  0.7143862651360182  0.6583054498959127  0.3757073286964344
  0.9567979607237534  0.3722038655968479  0.0534638542278201
  0.1839306820640653  0.2419836383076638  0.1476967644617279
  0.7587398173435906  0.9586082824760327  0.4584472811802748
  0.0272083019715026  0.8012470351035136  0.7755851645475071
  0.2056102331650913  0.1804486495770683  0.8244522380410967
  0.9647582002298931  0.7515631542016167  0.5188306289543249
  0.7938493344436167  0.0414003530270925  0.1583895417837193
  0.0264582780005475  0.3991148845046675  0.7677095455529663
  0.5942431565056785  0.6519398725188206  0.1646080155284429
  0.4096685646028334  0.9269208669644565  0.5331071628090186
  0.3698618273645378  0.0414064085723908  0.1602884392577106
  0.6417640806584710  0.6148422479344886  0.8252806198775324
  0.9319868145119967  0.4056465706094776  0.4444771332120480
 
             NaN             NaN             NaN
             NaN             NaN             NaN
             NaN             NaN             NaN
             NaN             NaN             NaN
             NaN             NaN             NaN
             NaN             NaN             NaN
             NaN             NaN             NaN
             NaN             NaN             NaN
             NaN             NaN             NaN
             NaN             NaN             NaN
             NaN             NaN             NaN
             NaN             NaN             NaN
             NaN             NaN             NaN
             NaN             NaN             NaN
             NaN             NaN             NaN
             NaN             NaN             NaN
             NaN             NaN             NaN
             NaN             NaN             NaN
             NaN             NaN             NaN
             NaN             NaN             NaN
             NaN             NaN             NaN
             NaN             NaN             NaN
             NaN             NaN             NaN
             NaN             NaN             NaN
             NaN             NaN             NaN
             NaN             NaN             NaN
             NaN             NaN             NaN
             NaN             NaN             NaN
             NaN             NaN             NaN
             NaN             NaN             NaN
             NaN             NaN             NaN
             NaN             NaN             NaN
             NaN             NaN             NaN
             NaN             NaN             NaN
             NaN             NaN             NaN
             NaN             NaN             NaN
             NaN             NaN             NaN
             NaN             NaN             NaN
             NaN             NaN             NaN
             NaN             NaN             NaN
             NaN             NaN             NaN
             NaN             NaN             NaN
             NaN             NaN             NaN
             NaN             NaN             NaN
             NaN             NaN             NaN
             NaN             NaN             NaN
             NaN             NaN             NaN
             NaN             NaN             NaN
             NaN             NaN             NaN
             NaN             NaN             NaN
             NaN             NaN             NaN
             NaN             NaN             NaN
             NaN             NaN             NaN
             NaN             NaN             NaN
             NaN             NaN             NaN
             NaN             NaN             NaN
             NaN             NaN             NaN
             NaN             NaN             NaN
             NaN             NaN             NaN
             NaN             NaN             NaN
             NaN             NaN             NaN
             NaN             NaN             NaN
