Ca8 V12 F42                             
   1.00000000000000     
     7.4899550000000001   -0.0384150000000000    0.0625180000000000
    -3.7837060000000000    6.5382990000000003   -0.1061190000000000
    -0.4596150000000000    0.4734000000000000   18.3942720000000008
   Ca   V    F 
     8    12    42
Direct
  0.8790594418024889 -0.0139958717885419  0.8285058701232810
  0.5157860511333706  0.8608920634169908  0.6560862580335671
  0.8356732397316611  0.4838796962084949  0.3279359516850420
  0.6498011404805049  0.1640824194910148 -0.0129648314806357
  0.8270956792918366 -0.0141989663428825  0.3332270056359870
  0.1832613983818468  0.6488491551475219 -0.0072385436932724
  0.9664585846227199  0.7844735586654008  0.1535168995337286
  0.1188614812762183 -0.0753647781994481  0.5934341970231977
  0.3144700866361119  0.0076234276907436  0.3234489005755425
  0.9749681110744780  0.3355010260051004  0.6618785091407213
  0.3846468478830196  0.3861820439217744  0.6021222991609458
  0.3514083775297053 -0.0080442610052592  0.8083334022525105
 -0.0153670562500923  0.3171597805581039  0.1701088334942073
  0.6739968417881731  0.6803182826396297  0.4864825153319698
  0.4879118767752155  0.8269031060000196  0.1688699387339275
  0.1668553994474511  0.6587910803941475  0.4836988890158568
  0.3485352779254474  0.4890298063732359  0.8134745959938439
  0.8517274246027216  0.4887798202265712  0.8153297224426554
  0.6663985441023254  0.1708637139731198  0.4871240317822986
  0.4786742384101457  0.3215801278926700  0.1650033845163444
  0.7266347653041102  0.1856612214119981  0.5959442314897828
  0.8800792858894804  0.4790974539374667  0.9240277378827526
  0.4682217392782017  0.3036495942500558  0.2755810922297878
  0.1736618187211187  0.7328927839545494  0.3777620824402804
  0.4844557707217473  0.8667527635636335  0.0592531248905938
  0.3040590923380809  0.4593888846051374  0.6982468010217683
  0.7932267655621194  0.0187691523735981  0.9316026765791250
  0.0008115273736887  0.8316671878392086  0.2749474593535343
  0.0711861971461420  0.1706562211509637  0.6058706284899955
  0.0679498396452494  0.8270636175034970  0.0468477378194090
  0.8228128853232524  0.0435776919977318  0.7120605089754197
  0.1592982152370019  0.0982803124064500  0.3818787789506504
  0.5449668175500577  0.3143622232322442  0.0644099840301563
  0.6042725495857673  0.1425140317704667  0.3751238958461084
  0.8399037649524522  0.4763288858020961  0.7065994628002322
  0.3309732834517237  0.5403198985715986  0.9145504913589710
  0.1475999328881843  0.6181897150983415  0.6018374020382522
  0.4910083630523839  0.8444171593974684  0.2800905392354479
  0.7874441188185685  0.4317199399212717  0.1938161324350001
  0.5564743985377237  0.3701928268226788  0.5084415299380863
  0.6487131823019340  0.1900693368941149  0.8221673213728883
  0.4420358699126669  0.7872547778060771  0.7782869294630635
  0.3770771623593839  0.5821992011449451  0.4885750160319236
  0.1770872557439108  0.6271152691367158  0.1649676391552645
 -0.0188525859333869  0.3074405239345487  0.2831755744173244
  0.6657575453852080  0.7069853500718387  0.5993747199422143
  0.3535113668054373  0.9327380970910855  0.9151558399311750
  0.3541616187635260  0.0355203199198214  0.6918857530766723
  0.6997533078865982  0.6550992077768559  0.3798782506529879
  0.9510394933807673  0.3496349873527241  0.0617868089230469
  0.1813793759965420  0.2186886662540582  0.1524193670224318
  0.7787405868748288 -0.0185479769327143  0.4634589395438170
  0.0470198771233515  0.7937908725390455  0.7995253653601109
  0.2470258487164121  0.1848180399216800  0.8324547395334311
  0.9684154395061533  0.7589458305685116  0.4964059172525181
  0.8003434517115080  0.0047625191094010  0.1859344852722063
  0.0394062215932884  0.3667457651712198  0.8050110893491002
  0.5865793366923097  0.6248787045975271  0.1462116537236562
  0.3898836266656812  0.9359768445431780  0.5297103293166004
  0.3799791984840657  0.0219361827824326  0.1840728851816201
  0.6585841070617432  0.6068980946987811  0.8179180196451804
  0.9358404354715455  0.3931255592147920  0.4437157352118160
 
             NaN             NaN             NaN
             NaN             NaN             NaN
             NaN             NaN             NaN
             NaN             NaN             NaN
             NaN             NaN             NaN
             NaN             NaN             NaN
             NaN             NaN             NaN
             NaN             NaN             NaN
             NaN             NaN             NaN
             NaN             NaN             NaN
             NaN             NaN             NaN
             NaN             NaN             NaN
             NaN             NaN             NaN
             NaN             NaN             NaN
             NaN             NaN             NaN
             NaN             NaN             NaN
             NaN             NaN             NaN
             NaN             NaN             NaN
             NaN             NaN             NaN
             NaN             NaN             NaN
             NaN             NaN             NaN
             NaN             NaN             NaN
             NaN             NaN             NaN
             NaN             NaN             NaN
             NaN             NaN             NaN
             NaN             NaN             NaN
             NaN             NaN             NaN
             NaN             NaN             NaN
             NaN             NaN             NaN
             NaN             NaN             NaN
             NaN             NaN             NaN
             NaN             NaN             NaN
             NaN             NaN             NaN
             NaN             NaN             NaN
             NaN             NaN             NaN
             NaN             NaN             NaN
             NaN             NaN             NaN
             NaN             NaN             NaN
             NaN             NaN             NaN
             NaN             NaN             NaN
             NaN             NaN             NaN
             NaN             NaN             NaN
             NaN             NaN             NaN
             NaN             NaN             NaN
             NaN             NaN             NaN
             NaN             NaN             NaN
             NaN             NaN             NaN
             NaN             NaN             NaN
             NaN             NaN             NaN
             NaN             NaN             NaN
             NaN             NaN             NaN
             NaN             NaN             NaN
             NaN             NaN             NaN
             NaN             NaN             NaN
             NaN             NaN             NaN
             NaN             NaN             NaN
             NaN             NaN             NaN
             NaN             NaN             NaN
             NaN             NaN             NaN
             NaN             NaN             NaN
             NaN             NaN             NaN
             NaN             NaN             NaN
