Ti4 F14                                 
   1.00000000000000     
    -7.5999421436849577    0.0397234188843313   -0.0000492900902380
    -3.7700395440533736   -5.5471748071875249   -3.2064545071984369
    -3.7699785338195491   -5.5471147142022179    3.2063280473682769
   F    Ti
    14     4
Direct
  0.7500875462228578  0.4087607752675311  0.0911661970595148
  0.2501202028326261  0.5911607449968272  0.9087383014945161
  0.9717970529073483  0.8067087433053644  0.2459114173409276
  0.0279709354247046  0.1935897257205781  0.7541035772056262
  0.4717928168162970  0.7459309024186496  0.3067571360461727
  0.5279810586714646  0.2540518794089266  0.6936075779315161
  0.0574151938853902  0.5866419084044736  0.6599336909081543
  0.3002335012421042  0.4178900896925128  0.3319554971109326
  0.5574258356408848  0.1599569684479079  0.0866229696861325
  0.8002475055719742  0.8319177380465064  0.9179206062743717
  0.9424937948443812  0.4135338941910263  0.3399211504883866
  0.6997445411289860  0.5822799447426590  0.6678168629568759
  0.4425051616198914  0.8399227835883210  0.9135577584007208
  0.1997584950839766  0.1678429062932949  0.0822644352746948
  0.5000147429638204  0.9998646895487369  0.0000709205991427
  0.9999944711951869  0.5001051731732318  0.4998229465996502
  0.0002130883280245  0.4999736309091958  0.9998528503207993
  0.5002040556200882  0.4998675018442640  0.9999761043018509
 
  0.00000000E+00  0.00000000E+00  0.00000000E+00
  0.00000000E+00  0.00000000E+00  0.00000000E+00
  0.00000000E+00  0.00000000E+00  0.00000000E+00
  0.00000000E+00  0.00000000E+00  0.00000000E+00
  0.00000000E+00  0.00000000E+00  0.00000000E+00
  0.00000000E+00  0.00000000E+00  0.00000000E+00
  0.00000000E+00  0.00000000E+00  0.00000000E+00
  0.00000000E+00  0.00000000E+00  0.00000000E+00
  0.00000000E+00  0.00000000E+00  0.00000000E+00
  0.00000000E+00  0.00000000E+00  0.00000000E+00
  0.00000000E+00  0.00000000E+00  0.00000000E+00
  0.00000000E+00  0.00000000E+00  0.00000000E+00
  0.00000000E+00  0.00000000E+00  0.00000000E+00
  0.00000000E+00  0.00000000E+00  0.00000000E+00
  0.00000000E+00  0.00000000E+00  0.00000000E+00
  0.00000000E+00  0.00000000E+00  0.00000000E+00
  0.00000000E+00  0.00000000E+00  0.00000000E+00
  0.00000000E+00  0.00000000E+00  0.00000000E+00
