Chromium - alpha                        
   1.00000000000000     
     5.6427833598181047   -0.0000000185653380   -0.0000000343029241
    -0.0000000091601672    2.8227139726028638    0.0000000063666253
    -0.0000000171014403    0.0000000063733233    2.8225294130508432
   Cr
     4
Direct
 -0.0000001212932344  0.0000000001107729  0.0000000001358621
  0.2499994950081621  0.4999999990074626  0.5000000016119291
  0.5000000765274991  0.0000000007412399  0.0000000000173486
  0.7500005497575732  0.5000000001405247  0.4999999982348602
 
  0.00000000E+00  0.00000000E+00  0.00000000E+00
  0.00000000E+00  0.00000000E+00  0.00000000E+00
  0.00000000E+00  0.00000000E+00  0.00000000E+00
  0.00000000E+00  0.00000000E+00  0.00000000E+00
