Ca1 Cr12 F42
1.0
7.245093 -0.024836 -0.007242
-3.594448 6.256608 0.011110
0.060687 0.093424 17.296674
Ca Cr F
1 12 42
direct
0.847043 0.503797 0.322917 Ca
0.294958 0.004889 0.333419 Cr
0.715994 0.716602 0.997239 Cr
0.998657 0.281010 0.669060 Cr
0.358964 0.997709 0.833642 Cr
0.643509 0.651958 0.507288 Cr
0.996821 0.350045 0.158309 Cr
0.646179 0.151037 0.503346 Cr
0.489757 0.349803 0.159483 Cr
0.858509 0.499329 0.833766 Cr
0.356632 0.495929 0.833189 Cr
0.147780 0.652732 0.506559 Cr
0.497372 0.852821 0.162904 Cr
0.573122 0.832284 0.058514 F
0.256513 0.418576 0.729282 F
0.169732 0.742060 0.397231 F
0.449189 0.264558 0.269608 F
0.827193 0.567354 0.938073 F
0.741523 0.177284 0.607087 F
0.878246 0.061103 0.730807 F
0.190974 0.124505 0.395539 F
0.921239 0.800879 0.064418 F
0.112309 0.185667 0.602888 F
0.050332 0.852677 0.275892 F
0.827133 0.936583 0.935411 F
0.120891 0.551741 0.608793 F
0.428242 0.877954 0.268494 F
0.456479 0.579285 0.936055 F
0.884491 0.428126 0.729849 F
0.567954 0.141865 0.393078 F
0.555132 0.444488 0.056384 F
0.352779 0.568707 0.481626 F
0.206626 0.643423 0.140255 F
0.439214 0.788210 0.809050 F
0.651083 0.204059 0.854608 F
0.557640 0.356403 0.524230 F
0.786748 0.441410 0.184338 F
0.686520 0.612977 0.401795 F
0.920832 0.309982 0.060151 F
0.394471 0.077948 0.735584 F
0.321300 0.917376 0.931732 F
0.603608 0.689576 0.605203 F
0.055442 0.396813 0.265981 F
0.938529 0.736438 0.525887 F
0.786587 0.061251 0.186211 F
0.275420 0.205668 0.857694 F
0.065142 0.792811 0.813011 F
0.730373 0.944967 0.480712 F
0.195473 0.251874 0.144860 F
0.635941 0.554311 0.800959 F
0.920449 0.381758 0.465186 F
0.436540 0.071796 0.129965 F
0.366600 0.932919 0.535312 F
0.551095 0.627296 0.195904 F
0.078775 0.440473 0.866041 F
