Calcium fluoride                        
   1.00000000000000     
     5.5184886779889037    0.0000000032048493   -0.0000000147980958
     0.0000000036852906    5.5184887496731365   -0.0000000337764469
    -0.0000000137857653   -0.0000000345060207    5.5184887304445605
   Ca   F 
     4     8
Direct
 -0.0000000149743602  0.0000000054735626  0.0000000031841337
 -0.0000000066332145  0.4999999781614910  0.5000000046388092
  0.5000000056932818  0.0000000107383068  0.4999999967955169
  0.4999999913501233  0.5000000006111233  0.0000000187981476
  0.2500000025539533  0.2499999892377683  0.2499999924246847
  0.7500000061874871  0.7500000103936431  0.7499999974337942
  0.7500000120322576  0.7500000084908569  0.2499999979519342
  0.2499999985012996  0.2499999924103063  0.7499999981654182
  0.7500000117758171  0.2499999943411529  0.7500000055070459
  0.2499999904079934  0.7500000019863827  0.2499999832033838
  0.2500000022255316  0.7500000083122750  0.7500000071611320
  0.7500000008798440  0.2499999998431453  0.2499999947360137
 
  0.00000000E+00  0.00000000E+00  0.00000000E+00
  0.00000000E+00  0.00000000E+00  0.00000000E+00
  0.00000000E+00  0.00000000E+00  0.00000000E+00
  0.00000000E+00  0.00000000E+00  0.00000000E+00
  0.00000000E+00  0.00000000E+00  0.00000000E+00
  0.00000000E+00  0.00000000E+00  0.00000000E+00
  0.00000000E+00  0.00000000E+00  0.00000000E+00
  0.00000000E+00  0.00000000E+00  0.00000000E+00
  0.00000000E+00  0.00000000E+00  0.00000000E+00
  0.00000000E+00  0.00000000E+00  0.00000000E+00
  0.00000000E+00  0.00000000E+00  0.00000000E+00
  0.00000000E+00  0.00000000E+00  0.00000000E+00
