Mn4 F12                                 
   1.00000000000000     
     5.4660784284727439   -0.0000194923753668   -0.0000050582438191
    -0.0000275219913607    7.3715665726787680    0.0001554572039535
    -0.0000044807622799    0.0001101402148025    5.0560316287895466
   Mn   F 
     4    12
Direct
  0.0000074170924497  0.5000714909470538  0.5001436531331397
  0.5000167940846707 -0.0000719661447974 -0.0001405418224003
  0.0000169486274629 -0.0000813632746516  0.5001504479847294
  0.5000058833162451  0.5000782235972245 -0.0001489100472804
  0.9850795078634071  0.2499867151898915  0.3893132789884913
  0.4850787247724379  0.2500151906894031  0.1106859875061301
  0.0149750276511166  0.7500017622266262  0.6107322151836974
  0.5149761703288070  0.7499987715600069  0.8892702436230506
  0.6840052327890987  0.5525689978412573  0.2942311782602844
  0.1839987639179095  0.9474433582095060  0.2057588530801973
  0.3159889978728920  0.0525813443086714  0.7057879678058062
  0.8159724106001736  0.4474119943630749  0.7942030355684212
  0.3159532352029338  0.4474322443631398  0.7057807070339467
  0.8159658383780731  0.0525639714939274  0.7942319545458514
  0.6839805054183353  0.9474338216417866  0.2942483556933617
  0.1839785420839871  0.5525654429878794  0.2057515734625666
 
  0.00000000E+00  0.00000000E+00  0.00000000E+00
  0.00000000E+00  0.00000000E+00  0.00000000E+00
  0.00000000E+00  0.00000000E+00  0.00000000E+00
  0.00000000E+00  0.00000000E+00  0.00000000E+00
  0.00000000E+00  0.00000000E+00  0.00000000E+00
  0.00000000E+00  0.00000000E+00  0.00000000E+00
  0.00000000E+00  0.00000000E+00  0.00000000E+00
  0.00000000E+00  0.00000000E+00  0.00000000E+00
  0.00000000E+00  0.00000000E+00  0.00000000E+00
  0.00000000E+00  0.00000000E+00  0.00000000E+00
  0.00000000E+00  0.00000000E+00  0.00000000E+00
  0.00000000E+00  0.00000000E+00  0.00000000E+00
  0.00000000E+00  0.00000000E+00  0.00000000E+00
  0.00000000E+00  0.00000000E+00  0.00000000E+00
  0.00000000E+00  0.00000000E+00  0.00000000E+00
  0.00000000E+00  0.00000000E+00  0.00000000E+00
