Ca8 V12 F42                             
   1.00000000000000     
     7.4998709999999997   -0.0273300000000000    0.0565950000000000
    -3.7791610000000002    6.5246100000000000   -0.0959530000000000
    -0.4743370000000000    0.4916950000000000   18.3131839999999997
   Ca   V    F 
     8    12    42
Direct
  1.0229702810798658  0.7628156406634016  0.8355037088486549
  0.5038469190060682  0.1922238861550973  0.5748935627744981
  0.8047722019007347  0.3059304544672448  0.2419314920831928
  0.6201841208532084 -0.0270371838592379  0.9021405743525714
  0.7902794204608813  0.7958313617467240  0.2498638825263792
  0.1664571860033774  0.4439315845354040  0.9268733887666213
  0.9627220232652854  0.6603900620306501  0.0676004443726538
  0.1581013131808530 -0.0032121763473504  0.4094300571507738
  0.2942752789639995  0.8076088584568824  0.2472169588005107
  1.0160236592160596  0.1535603847151604  0.5850041445831818
  0.6079781032882855  0.8162627698943293  0.6452307159765274
  0.1293274591493423  0.5629960580683235  0.6323267459602350
  0.9630200051042773  0.1410277851187114  0.0899625561327896
  0.6558047715498598  0.4977567327918388  0.4189820636292226
  0.4630617616291280  0.6434778655346313  0.0897950258762295
  0.1537996828841038  0.4948919814907176  0.4165083580221274
  0.3301212661275701  0.3081728187260980  0.7518567014946584
  0.8231204569643856  0.2919851208116165  0.7413911863717463
  0.6569939015084485 -0.0080996772082454  0.4166212820523653
  0.4659762901916631  0.1397745536255703  0.0832310308411752
  0.7338841213261436  0.0160111550155858  0.5280265084035798
  0.8452346898782498  0.3155891939552253  0.8501878962219975
  0.4541070805341662  0.1003866200842013  0.1956986190766322
  0.1271242820001800  0.5307243862789380  0.3057097166840748
  0.4893876679677965  0.6746372687034988  0.9820056327758641
  0.2831467239943047  0.2315446740180806  0.6439782360907733
  0.8022925655585869  0.8545666709278220  0.8554394832037351
  0.9887258652883009  0.6472652413998068  0.1918868623531100
  0.1717437814422456  0.0530753564063374  0.5251808969917281
 -0.0071381485875686  0.6235249776647719  0.9541341291957351
  0.8952510086527043  0.8788235200132125  0.6396152066420479
  0.1246588974312608 -0.0780866688172645  0.2941208908697167
  0.5081024702259638  0.1324116486967474  0.9791279060175211
  0.5975386501137759 -0.0247111075708522  0.3026996225377360
  0.8409413030417989  0.2965336098623376  0.6258154960936805
  0.3577509760129681  0.3842588185403578  0.8524210042877969
  0.1501548080742019  0.4453850063732088  0.5311000220181873
  0.4548533218247767  0.6713917272371757  0.2030005389073755
  0.7793008565035003  0.2677595463632180  0.1095462962229222
  0.5472310105838560  0.1883762349824515  0.4446898197613722
  0.6206898126434084 -0.0075764012280073  0.7282550679908213
  0.3638093595097823  0.5763858491376993  0.6985312316413350
  0.3494842768236576  0.3815809599767396  0.4017923848950926
  0.1567143359564562  0.4477091846213040  0.0656224799382657
  0.9550632826803512  0.1286796939156553  0.2058795628945207
  0.6233742008113330  0.5084143530701177  0.5288903847077054
  0.3034208454915415  0.7379545511993838  0.8630036042920790
  0.3617353196345648  0.8505607934958607  0.6076088884917720
  0.6880867727231534  0.4785685342092788  0.3057759325300718
  0.9176951050706003  0.1345250473725055  0.9803204736182971
  0.1549566617047351  0.0281349758331223  0.0711492443735524
  0.7678163375487354  0.8010903545685282  0.3859147015639245
  0.0249050259958258  0.6057484557993684  0.7289781744976370
  0.2775023206994827  0.0410064870774904  0.7860748722468927
  0.9620630625442832  0.6110188837469270  0.4334199541353679
  0.7757959913358846  0.8275327383169367  0.1127289600920718
  0.0350689465445597  0.2107347957409472  0.7517658418329486
  0.5706258236020124  0.4442983535261413  0.0898567948042381
  0.3472886626399995  0.8044329650760005  0.4255533887455918
  0.3467803088446153  0.8328041251778948  0.0872979102341366
  0.6173928631039366  0.3868320779636945  0.7270851359726428
  0.9622780437217756  0.1871833055419930  0.3988983520059459
 
             NaN             NaN             NaN
             NaN             NaN             NaN
             NaN             NaN             NaN
             NaN             NaN             NaN
             NaN             NaN             NaN
             NaN             NaN             NaN
             NaN             NaN             NaN
             NaN             NaN             NaN
             NaN             NaN             NaN
             NaN             NaN             NaN
             NaN             NaN             NaN
             NaN             NaN             NaN
             NaN             NaN             NaN
             NaN             NaN             NaN
             NaN             NaN             NaN
             NaN             NaN             NaN
             NaN             NaN             NaN
             NaN             NaN             NaN
             NaN             NaN             NaN
             NaN             NaN             NaN
             NaN             NaN             NaN
             NaN             NaN             NaN
             NaN             NaN             NaN
             NaN             NaN             NaN
             NaN             NaN             NaN
             NaN             NaN             NaN
             NaN             NaN             NaN
             NaN             NaN             NaN
             NaN             NaN             NaN
             NaN             NaN             NaN
             NaN             NaN             NaN
             NaN             NaN             NaN
             NaN             NaN             NaN
             NaN             NaN             NaN
             NaN             NaN             NaN
             NaN             NaN             NaN
             NaN             NaN             NaN
             NaN             NaN             NaN
             NaN             NaN             NaN
             NaN             NaN             NaN
             NaN             NaN             NaN
             NaN             NaN             NaN
             NaN             NaN             NaN
             NaN             NaN             NaN
             NaN             NaN             NaN
             NaN             NaN             NaN
             NaN             NaN             NaN
             NaN             NaN             NaN
             NaN             NaN             NaN
             NaN             NaN             NaN
             NaN             NaN             NaN
             NaN             NaN             NaN
             NaN             NaN             NaN
             NaN             NaN             NaN
             NaN             NaN             NaN
             NaN             NaN             NaN
             NaN             NaN             NaN
             NaN             NaN             NaN
             NaN             NaN             NaN
             NaN             NaN             NaN
             NaN             NaN             NaN
             NaN             NaN             NaN
