Ca8 V12 F42                             
   1.00000000000000     
     7.4998709999999997   -0.0273300000000000    0.0565950000000000
    -3.7791610000000002    6.5246100000000000   -0.0959530000000000
    -0.4743370000000000    0.4916950000000000   18.3131839999999997
   Ca   V    F 
     8    12    42
Direct
  0.8588478655055427  0.9134224020644018  0.7561916116455971
  0.5085786683398515  0.3199214258130517  0.5792183251244378
  0.8320888420568830  0.4090009394888623  0.2498531861568798
  0.6332334032417249  0.0710010812876880  0.9172786936542051
  0.8036918883179766  0.8863418137699097  0.2524325140550253
  0.1635934518948062  0.5429990743658744  0.9189887569346908
  0.9733360015977947  0.7486110357789068  0.0750554282570665
  0.1467049184455115  0.0821836224368246  0.4162101164168590
  0.3058909517118496  0.9139919812271177  0.2500761573554437
  0.9967266657873564  0.2716092115195629  0.5815531681792666
  0.4977220260672166  0.8638074461679061  0.5758452269282309
  0.3239943098512152  0.9021918899041964  0.7414144122033769
  0.9739565262136141  0.2373957455722087  0.0992213416103808
  0.6501610035254453  0.6120620527292964  0.4212916159719606
  0.4689240918284763  0.7381275933906576  0.0983555629259467
  0.1552492071598977  0.6024123781472146  0.4216324162714102
  0.3249702872316786  0.4112898520036729  0.7466839348571488
  0.8199727223269153  0.3948305741152107  0.7436724691366718
  0.6539651222274743  0.1101257653273367  0.4098255871696053
  0.4714457899348855  0.2370258168350125  0.0942309531324757
  0.7155921462796513  0.1077758076887797  0.5175981031186657
  0.8398164535439192  0.3895455974168353  0.8541190118303333
  0.4493832856843561  0.2129521479745501  0.2028546683823166
  0.1440538767498122  0.6407436920732472  0.3105916554359716
  0.4640328270893911  0.7653731996901341 -0.0103606305054069
  0.2587001955898988  0.3403654426795601  0.6403546694645907
  0.7964663038515786  0.9329468789156503  0.8663811561441770
  0.9918102462211449  0.7446248280890463  0.1994325420574340
  0.1639311760850090  0.1604113964515507  0.5288927286846128
  0.0397667983791343  0.7145614728300229  0.9692014432679411
  0.7935175821211848 -0.0085008841880642  0.6353437929444303
  0.1360025355115244  0.0190400187463507  0.3010976719401118
  0.5214499214985734  0.2224646505183623 -0.0075013327732048
  0.6024832747660848  0.0868567429703341  0.2996795533044554
  0.8109835989732785  0.3729922403009173  0.6284081353242997
  0.3721569032599886  0.4821701144294738  0.8495744935710130
  0.1910679239178556  0.5876408774646016  0.5359150271255547
  0.4700576230260640  0.7659699399176548  0.2106619849636979
  0.7780177081402315  0.3489482305261810  0.1221217729699104
  0.5671641569965851  0.3152594080885054  0.4574153932905592
  0.6273260769479588  0.0886389522188913  0.7530784782472543
  0.4005842769941060  0.6990352754754510  0.6972687937777466
  0.3410994900498195  0.4763769105291839  0.4077331478257059
  0.1623692525819372  0.5434799115091078  0.0955540735914005
  0.9730057588173973  0.2210334510823716  0.2129300737881186
  0.6004275166671448  0.6704623889613393  0.5304823360510807
  0.3360449527567580  0.8416186285488325  0.8486432210931033
  0.3637129238642130 -0.0012307080310672  0.6288227593694992
  0.6972690044962052  0.5679958775021905  0.3133426961868861
  0.9387990234170596  0.2520121225082851 -0.0100449912963513
  0.1655135454953089  0.1264487792226806  0.0798731178318405
  0.7610783489449257  0.9100506717902737  0.3803912901790384
  0.0137547965419845  0.7069188249163100  0.7358359699844260
  0.2305313199943928  0.1045103931192141  0.7679578488819649
  0.9572280956798291  0.7185842984810955  0.4394082234180642
  0.7831671353991797  0.9243065959348957  0.1155807199105563
  0.0186256109174956  0.2892130881473705  0.7544726796732443
  0.5829472381247256  0.5430857695464208  0.0903720994439750
  0.3448865437461994  0.9216542010432527  0.4280282211555883
  0.3585008553926870  0.9325724883957097  0.1051665400896755
  0.6221744578136413  0.5035124781200683  0.7210506546801011
  0.9579255373757750  0.3002659242631003  0.3940446031010984
 
             NaN             NaN             NaN
             NaN             NaN             NaN
             NaN             NaN             NaN
             NaN             NaN             NaN
             NaN             NaN             NaN
             NaN             NaN             NaN
             NaN             NaN             NaN
             NaN             NaN             NaN
             NaN             NaN             NaN
             NaN             NaN             NaN
             NaN             NaN             NaN
             NaN             NaN             NaN
             NaN             NaN             NaN
             NaN             NaN             NaN
             NaN             NaN             NaN
             NaN             NaN             NaN
             NaN             NaN             NaN
             NaN             NaN             NaN
             NaN             NaN             NaN
             NaN             NaN             NaN
             NaN             NaN             NaN
             NaN             NaN             NaN
             NaN             NaN             NaN
             NaN             NaN             NaN
             NaN             NaN             NaN
             NaN             NaN             NaN
             NaN             NaN             NaN
             NaN             NaN             NaN
             NaN             NaN             NaN
             NaN             NaN             NaN
             NaN             NaN             NaN
             NaN             NaN             NaN
             NaN             NaN             NaN
             NaN             NaN             NaN
             NaN             NaN             NaN
             NaN             NaN             NaN
             NaN             NaN             NaN
             NaN             NaN             NaN
             NaN             NaN             NaN
             NaN             NaN             NaN
             NaN             NaN             NaN
             NaN             NaN             NaN
             NaN             NaN             NaN
             NaN             NaN             NaN
             NaN             NaN             NaN
             NaN             NaN             NaN
             NaN             NaN             NaN
             NaN             NaN             NaN
             NaN             NaN             NaN
             NaN             NaN             NaN
             NaN             NaN             NaN
             NaN             NaN             NaN
             NaN             NaN             NaN
             NaN             NaN             NaN
             NaN             NaN             NaN
             NaN             NaN             NaN
             NaN             NaN             NaN
             NaN             NaN             NaN
             NaN             NaN             NaN
             NaN             NaN             NaN
             NaN             NaN             NaN
             NaN             NaN             NaN
