Ca8 V12 F42
1.0
7.480039 -0.049501 0.068442
-3.788251 6.551988 -0.116284
-0.444893 0.455104 18.475360
Ca V F
8 12 42
direct
0.837708 0.952424 0.829983 Ca
0.471341 0.848806 0.659769 Ca
0.840317 0.483112 0.331288 Ca
0.639093 0.141575 0.991406 Ca
0.818733 0.981276 0.335555 Ca
0.153088 0.613547 0.999932 Ca
0.013929 0.856344 0.158174 Ca
0.188405 0.147932 0.505475 Ca
0.320250 0.995523 0.329082 V
0.984483 0.329393 0.667032 V
0.668137 0.654129 0.000198 V
0.333095 0.985771 0.832598 V
0.996693 0.327733 0.171030 V
0.657861 0.665540 0.494335 V
0.498221 0.826611 0.167380 V
0.158381 0.658079 0.495968 V
0.327303 0.486717 0.834608 V
0.828790 0.479976 0.831944 V
0.666006 0.164487 0.495185 V
0.507371 0.332541 0.166049 V
0.728226 0.181496 0.602417 F
0.798139 0.504896 0.943309 F
0.484725 0.276115 0.275668 F
0.170982 0.728095 0.387431 F
0.520697 0.804003 0.054690 F
0.248934 0.484664 0.728494 F
0.775774 0.939259 0.947853 F
0.017641 0.835758 0.278186 F
0.108713 0.206479 0.608370 F
0.961171 0.760798 0.046360 F
0.805361 0.052934 0.722260 F
0.152586 0.100446 0.384877 F
0.556391 0.370297 0.054709 F
0.607110 0.136652 0.383060 F
0.860791 0.450452 0.728064 F
0.388107 0.531466 0.946233 F
0.144805 0.594328 0.604777 F
0.484698 0.873218 0.277079 F
0.820862 0.459473 0.194056 F
0.547237 0.353330 0.504539 F
0.641863 0.177798 0.859295 F
0.453754 0.796779 0.823795 F
0.344614 0.540406 0.480464 F
0.189151 0.632954 0.139978 F
0.985227 0.307544 0.286120 F
0.618462 0.717726 0.594990 F
0.319112 0.927307 0.945941 F
0.358465 0.010665 0.726400 F
0.704810 0.656642 0.383062 F
0.935951 0.310262 0.057327 F
0.192917 0.217420 0.150405 F
0.785750 0.979626 0.468216 F
0.023961 0.785782 0.826654 F
0.207999 0.176158 0.840319 F
0.970105 0.777874 0.508170 F
0.812523 0.015520 0.190355 F
0.045664 0.418874 0.875237 F
0.613409 0.635651 0.178637 F
0.374675 0.947866 0.533083 F
0.394285 0.026209 0.145348 F
0.629399 0.584859 0.809735 F
0.933473 0.390481 0.452178 F
