Ti4 F12                                 
   1.00000000000000     
     5.5652942473258769   -0.0000075918434412    0.0000113166654042
     0.0000119496781620    7.6713837361197061   -0.0005148119806355
     0.0000009234231989   -0.0000563109180509    5.3457001371531252
   Ti   F 
     4    12
Direct
  0.0000617435118713  0.4999930770853993  0.5000666018354636
  0.5000486343149788  0.0000057599732841  0.9999419235571452
  0.0000485713682039  0.0000141344081541  0.5000791536115088
  0.5000588638512440  0.4999894370632845  0.9999226439157809
  0.9675720240686516  0.2500030544287810  0.3940430674537012
  0.4675645624774063  0.2499953666550709  0.1059506375276413
  0.0323151740570680  0.7499955840679462  0.6059289308728282
  0.5323247689503461  0.7500025048900838  0.8940804115076659
  0.7046730329220594  0.5481300868007395  0.3063732220187205
  0.2046684440150841  0.9518677906520168  0.1936274460927692
  0.2953234452442643  0.0481397651249225  0.6935734395182749
  0.7953329054525469  0.4518613740599307  0.8064291783522961
  0.2953496694396094  0.4518771008113944  0.6935397130319103
  0.7953336099184654  0.0481258181928013  0.8064516710825345
  0.7046641301613761  0.9518618113906498  0.3063830542461972
  0.2046604202468245  0.5481373343955340  0.1936089053755552
 
  0.00000000E+00  0.00000000E+00  0.00000000E+00
  0.00000000E+00  0.00000000E+00  0.00000000E+00
  0.00000000E+00  0.00000000E+00  0.00000000E+00
  0.00000000E+00  0.00000000E+00  0.00000000E+00
  0.00000000E+00  0.00000000E+00  0.00000000E+00
  0.00000000E+00  0.00000000E+00  0.00000000E+00
  0.00000000E+00  0.00000000E+00  0.00000000E+00
  0.00000000E+00  0.00000000E+00  0.00000000E+00
  0.00000000E+00  0.00000000E+00  0.00000000E+00
  0.00000000E+00  0.00000000E+00  0.00000000E+00
  0.00000000E+00  0.00000000E+00  0.00000000E+00
  0.00000000E+00  0.00000000E+00  0.00000000E+00
  0.00000000E+00  0.00000000E+00  0.00000000E+00
  0.00000000E+00  0.00000000E+00  0.00000000E+00
  0.00000000E+00  0.00000000E+00  0.00000000E+00
  0.00000000E+00  0.00000000E+00  0.00000000E+00
