Ca2 Ti4 F12                             
   1.00000000000000     
     5.9940623265182857   -0.0057053823353180   -0.0032350732966269
    -0.0066562836283985    7.9903251811865159    0.0098153154316605
    -0.0204145294992610    0.0136906077564904    5.7189432435327054
   Ca   Ti   F 
     2     4    12
Direct
  0.0685408725773371  0.2493555056441821  0.9815261713437238
  0.9314952227521616  0.7506320490404406  0.0184446361611208
  0.9999646376204154  0.5000176257367954  0.5000006499099143
  0.4999667670827748  0.9999334441230161  0.9999812943403654
  0.0000137549344643  0.9999805235590173  0.5000069388046882
  0.5000286402370477  0.5000245442935878  0.0000365128422288
  0.9715153022614516  0.2503371077868053  0.3644470197146674
  0.4340091710434208  0.2498379020466999  0.1141060189150380
  0.0284191936313931  0.7496572428298052  0.6355666675254881
  0.5660567046972460  0.7502395218493803  0.8858406142530271
  0.7381701251912816  0.5730859517284941  0.2661939801982314
  0.1746441499498488  0.9500567864851774  0.1670277705402512
  0.2625937754235039  0.0718667269154807  0.7339336811787831
  0.8245128026763098  0.4487858278109798  0.8341466605465797
  0.2618161662611982  0.4268978385046438  0.7338391391430577
  0.8253086669999021  0.0499643354917794  0.8329242060735425
  0.7374499991733572  0.9280730481640234  0.2660940486423016
  0.1754940474868718  0.5512540179897059  0.1658839898669768
 
  0.00000000E+00  0.00000000E+00  0.00000000E+00
  0.00000000E+00  0.00000000E+00  0.00000000E+00
  0.00000000E+00  0.00000000E+00  0.00000000E+00
  0.00000000E+00  0.00000000E+00  0.00000000E+00
  0.00000000E+00  0.00000000E+00  0.00000000E+00
  0.00000000E+00  0.00000000E+00  0.00000000E+00
  0.00000000E+00  0.00000000E+00  0.00000000E+00
  0.00000000E+00  0.00000000E+00  0.00000000E+00
  0.00000000E+00  0.00000000E+00  0.00000000E+00
  0.00000000E+00  0.00000000E+00  0.00000000E+00
  0.00000000E+00  0.00000000E+00  0.00000000E+00
  0.00000000E+00  0.00000000E+00  0.00000000E+00
  0.00000000E+00  0.00000000E+00  0.00000000E+00
  0.00000000E+00  0.00000000E+00  0.00000000E+00
  0.00000000E+00  0.00000000E+00  0.00000000E+00
  0.00000000E+00  0.00000000E+00  0.00000000E+00
  0.00000000E+00  0.00000000E+00  0.00000000E+00
  0.00000000E+00  0.00000000E+00  0.00000000E+00
