Co4 F12                                 
   1.00000000000000     
     5.2393126899172531    0.0000999926757230   -0.0000228531903884
     0.0001690794818182    7.2172060191068903   -0.0000964135679056
     0.0000873341872742   -0.0002142231267046    4.9573133364942654
   Co   F 
     4    12
Direct
 -0.0000234350217394  0.4999802200914902  0.5000082857806465
  0.4999914240515761  0.0000213674378968  0.9999788520970244
  0.9999425495065148  0.0000562719406699  0.4999478224173523
  0.4999311723789087  0.4999341469623670  0.0000453371355789
  0.9715637106266019  0.2500146210134707  0.3755473952676630
  0.4715636790384815  0.2499876783969195  0.1244516874133443
  0.0284415929380322  0.7500165302493154  0.6243263854948333
  0.5284456113056337  0.7499825994582909  0.8756824310429496
  0.7037088557407388  0.5590846999665160  0.3167511332868675
  0.2037292331021346  0.9409059496224738  0.1832605434315640
  0.2963070468389057  0.0590926781335466  0.6832641898720206
  0.7963273723943310  0.4408950348185466  0.8167559407894096
  0.2963191115743151  0.4409166761895252  0.6832605738487264
  0.7963216016917225  0.0590895811655081  0.8167293934979128
  0.7037198961659654  0.9409414124743138  0.3167178153242634
  0.2037105776678700  0.5590805320791495  0.1832722132998362
 
  0.00000000E+00  0.00000000E+00  0.00000000E+00
  0.00000000E+00  0.00000000E+00  0.00000000E+00
  0.00000000E+00  0.00000000E+00  0.00000000E+00
  0.00000000E+00  0.00000000E+00  0.00000000E+00
  0.00000000E+00  0.00000000E+00  0.00000000E+00
  0.00000000E+00  0.00000000E+00  0.00000000E+00
  0.00000000E+00  0.00000000E+00  0.00000000E+00
  0.00000000E+00  0.00000000E+00  0.00000000E+00
  0.00000000E+00  0.00000000E+00  0.00000000E+00
  0.00000000E+00  0.00000000E+00  0.00000000E+00
  0.00000000E+00  0.00000000E+00  0.00000000E+00
  0.00000000E+00  0.00000000E+00  0.00000000E+00
  0.00000000E+00  0.00000000E+00  0.00000000E+00
  0.00000000E+00  0.00000000E+00  0.00000000E+00
  0.00000000E+00  0.00000000E+00  0.00000000E+00
  0.00000000E+00  0.00000000E+00  0.00000000E+00
