Ca9 Ti12 F42                            
   1.00000000000000     
     7.5933821651144129   -0.0573935605460153   -0.1353111594029696
    -3.8049448209861652    6.6437255986044494    0.0624575975677147
     0.1230471687145158    0.0100307843597903   18.2498994214647716
   Ca   Ti   F 
     9    12    42
Direct
  0.8485825829270084  0.4920947605468626  0.3222697344988532
  0.5155709000340281  0.3439425690202853  0.6525809929591233
  0.1829197008038079  0.1545973648241414  0.9919547005201395
  0.0131831102253699  0.8433675199811361  0.6641772041997598
  0.8473921559710718  0.9858016201217126  0.3299514507229730
  0.6513477012015727  0.1480711426639445  0.9874751955236505
  0.0206567580188164  0.8146174952567620  0.1571668648584179
  0.8230856313921464  0.9974716443850369  0.8256492812513017
  0.1916610295525984  0.1926752433019274  0.4910930667609179
  0.3503928725469834  0.9933084240141241  0.3353716047345614
  0.0174311681196926  0.3409575254615405  0.6675885534627852
  0.6606580259189485  0.6463392080248838  0.9982021007145718
  0.3289793579649967  0.9963152241674251  0.8285740266203518
  0.0119365815055019  0.3181625215387527  0.1727052953616663
  0.6952774564174433  0.6814347905496732  0.4986755576884718
  0.5351505547560507  0.8502018476330022  0.1571591812001500
  0.1879761987092223  0.6797545704061250  0.5061057347557139
  0.3341621660865925  0.4966534796617950  0.8357885331316339
  0.8416006937799096  0.5062425187454664  0.8362778525842600
  0.6873053845809594  0.1696224409821809  0.5020866222618920
  0.5280555394778332  0.3178568339743251  0.1572268774593368
  0.7023717370587192  0.1942183530163604  0.6186864070874805
  0.8320954771402498  0.4888514139954481  0.9531768835931160
  0.5136894882316909  0.2925681204362718  0.2766966918050144
  0.1371454666410088  0.6744826152039138  0.3913759561341053
  0.5486783622677152  0.8400104229322594  0.0365946846725507
  0.3376885504768978  0.4487636992620594  0.7217287482355275
  0.8702121877358167  0.0577031481507291  0.9468009452769479
  0.0374578342105920  0.8304147824260824  0.2804689073179460
  0.1774101178767822  0.1815602034034356  0.6130335139257497
  0.9713668575565464  0.8447417680617022  0.0387258368315386
  0.8842599206173389  0.0318791437769050  0.7091351073782874
  0.1719779856540669  0.1239902353906857  0.3755237159989591
  0.5125258518989142  0.3237591461572364  0.0361823067787199
  0.6861580881227667  0.1901603680638502  0.3846021141996729
  0.8143965667463249  0.4912982959607817  0.7177591066461559
  0.3364156721641933  0.4814047302516329  0.9528910320282691
  0.1533982717566289  0.6529662227748716  0.6249647994829886
  0.5250284179847924  0.8713324803293574  0.2812104166230398
  0.8485037414216734  0.4868917178377785  0.1969315870855866
  0.5489426971004150  0.3532303517710744  0.5237909742457774
  0.6532414123321999  0.1849793305514709  0.8561007878976881
  0.4594548223296542  0.8099258728684973  0.8200847009555332
  0.3776846018871964  0.5553005027682261  0.4887029779688277
  0.2154683763514242  0.6227533119930939  0.1451754359819120
  0.9955583434953539  0.3104172875190230  0.2883731432983296
  0.6902758132345141  0.6724756905435996  0.6150893797792918
  0.3291856762900380  0.9892095728727384  0.9450138134971908
  0.3378278486134931  0.0524282517779753  0.7160733027055031
  0.7366224954773628  0.6698674853001521  0.3849456667003039
  0.7245244784342972  0.1819192499533600  0.1108093619107393
  0.1987845983837886  0.2156380872759698  0.1200486797003322
  0.8255904836753487  0.9974211232719199  0.4648910844384346
  0.0079736712911540  0.8153778706239621  0.7989422949704519
  0.1933575575423703  0.1759792141720240  0.8563048031598015
  0.0158182306452943  0.8297121316530252  0.5296516594424219
  0.8565452177411856  0.9885721266462966  0.1984736446897557
  0.0155984725736005  0.3667408987209271  0.7990673304136706
  0.6434880366064846  0.6345693047560630  0.1287394193949183
  0.3720488900724135  0.9921951959808126  0.4698743797099709
  0.3589459893130353  0.9997019887428351  0.1765432736382024
  0.6651586134830936  0.6507011220141621  0.8704727904870566
  0.0067975075730544  0.3543984155303477  0.5284619026416166
 
  0.00000000E+00  0.00000000E+00  0.00000000E+00
  0.00000000E+00  0.00000000E+00  0.00000000E+00
  0.00000000E+00  0.00000000E+00  0.00000000E+00
  0.00000000E+00  0.00000000E+00  0.00000000E+00
  0.00000000E+00  0.00000000E+00  0.00000000E+00
  0.00000000E+00  0.00000000E+00  0.00000000E+00
  0.00000000E+00  0.00000000E+00  0.00000000E+00
  0.00000000E+00  0.00000000E+00  0.00000000E+00
  0.00000000E+00  0.00000000E+00  0.00000000E+00
  0.00000000E+00  0.00000000E+00  0.00000000E+00
  0.00000000E+00  0.00000000E+00  0.00000000E+00
  0.00000000E+00  0.00000000E+00  0.00000000E+00
  0.00000000E+00  0.00000000E+00  0.00000000E+00
  0.00000000E+00  0.00000000E+00  0.00000000E+00
  0.00000000E+00  0.00000000E+00  0.00000000E+00
  0.00000000E+00  0.00000000E+00  0.00000000E+00
  0.00000000E+00  0.00000000E+00  0.00000000E+00
  0.00000000E+00  0.00000000E+00  0.00000000E+00
  0.00000000E+00  0.00000000E+00  0.00000000E+00
  0.00000000E+00  0.00000000E+00  0.00000000E+00
  0.00000000E+00  0.00000000E+00  0.00000000E+00
  0.00000000E+00  0.00000000E+00  0.00000000E+00
  0.00000000E+00  0.00000000E+00  0.00000000E+00
  0.00000000E+00  0.00000000E+00  0.00000000E+00
  0.00000000E+00  0.00000000E+00  0.00000000E+00
  0.00000000E+00  0.00000000E+00  0.00000000E+00
  0.00000000E+00  0.00000000E+00  0.00000000E+00
  0.00000000E+00  0.00000000E+00  0.00000000E+00
  0.00000000E+00  0.00000000E+00  0.00000000E+00
  0.00000000E+00  0.00000000E+00  0.00000000E+00
  0.00000000E+00  0.00000000E+00  0.00000000E+00
  0.00000000E+00  0.00000000E+00  0.00000000E+00
  0.00000000E+00  0.00000000E+00  0.00000000E+00
  0.00000000E+00  0.00000000E+00  0.00000000E+00
  0.00000000E+00  0.00000000E+00  0.00000000E+00
  0.00000000E+00  0.00000000E+00  0.00000000E+00
  0.00000000E+00  0.00000000E+00  0.00000000E+00
  0.00000000E+00  0.00000000E+00  0.00000000E+00
  0.00000000E+00  0.00000000E+00  0.00000000E+00
  0.00000000E+00  0.00000000E+00  0.00000000E+00
  0.00000000E+00  0.00000000E+00  0.00000000E+00
  0.00000000E+00  0.00000000E+00  0.00000000E+00
  0.00000000E+00  0.00000000E+00  0.00000000E+00
  0.00000000E+00  0.00000000E+00  0.00000000E+00
  0.00000000E+00  0.00000000E+00  0.00000000E+00
  0.00000000E+00  0.00000000E+00  0.00000000E+00
  0.00000000E+00  0.00000000E+00  0.00000000E+00
  0.00000000E+00  0.00000000E+00  0.00000000E+00
  0.00000000E+00  0.00000000E+00  0.00000000E+00
  0.00000000E+00  0.00000000E+00  0.00000000E+00
  0.00000000E+00  0.00000000E+00  0.00000000E+00
  0.00000000E+00  0.00000000E+00  0.00000000E+00
  0.00000000E+00  0.00000000E+00  0.00000000E+00
  0.00000000E+00  0.00000000E+00  0.00000000E+00
  0.00000000E+00  0.00000000E+00  0.00000000E+00
  0.00000000E+00  0.00000000E+00  0.00000000E+00
  0.00000000E+00  0.00000000E+00  0.00000000E+00
  0.00000000E+00  0.00000000E+00  0.00000000E+00
  0.00000000E+00  0.00000000E+00  0.00000000E+00
  0.00000000E+00  0.00000000E+00  0.00000000E+00
  0.00000000E+00  0.00000000E+00  0.00000000E+00
  0.00000000E+00  0.00000000E+00  0.00000000E+00
  0.00000000E+00  0.00000000E+00  0.00000000E+00
