Ca1 Cr12 F42                            
   1.00000000000000     
     7.2427640000000002   -0.0253220000000000   -0.0090230000000000
    -3.5936759999999999    6.2615100000000004    0.0206640000000000
     0.0565530000000000    0.1170600000000000   17.2782139999999984
   Ca   Cr   F 
     1    12    42
Direct
  0.8414771961111414  0.4514944042310894  0.3292141636133879
  0.2780636426928002 -0.0127470237916955  0.3300568722121568
  0.7242989047402479  0.7218785494442778  0.9972496728711786
  0.9966115275985112  0.2768555483318849  0.6712448902835902
  0.3589583827680632  1.0001183467586836  0.8349577241515994
  0.6347903652478747  0.6375529141193894  0.5044613606009690
  1.0110216128977509  0.3567045640014863  0.1586413557489073
  0.6337112338682217  0.1345861953343882  0.5057438868844690
  0.5015069276900911  0.3537616136971695  0.1612826283814089
  0.8588919343611747  0.5010070383579849  0.8337948535011388
  0.3573474872129004  0.4987133356534738  0.8350548871454410
  0.1381734941680893  0.6396072786923862  0.5052643561688106
  0.5110672771964724  0.8579980999419724  0.1646032012433059
  0.5846594934212451  0.8373230353914921  0.0597992075722186
  0.2551056523404897  0.4285970621841343  0.7306646388221953
  0.1572329050582320  0.7261822106377759  0.3956640712404776
  0.4399357306078158  0.2533778898833361  0.2693289569405843
  0.8340646694935497  0.5732642006398956  0.9378993570652708
  0.7380870834393903  0.1571616113099710  0.6083202739638720
  0.8830803710016588  0.0626511100234164  0.7356314872450930
  0.1506030335267092  0.0965098184174560  0.3852460975624653
  0.9392937524520470  0.8184968931522643  0.0603151087326738
  0.1162854572319731  0.1835941184250205  0.6071295598861982
  0.0514666146806384  0.8247292486543804  0.2684134616186046
  0.8212513396039449  0.9356657652148375  0.9327566464011844
  0.1087058384800894  0.5406253620870493  0.6077653474431974
  0.4455179887912374  0.8865007502046757  0.2706328025982782
  0.4584134527286124  0.5738137708520539  0.9388720718904444
  0.8785888048190508  0.4232455036677930  0.7299035590653294
  0.5435467624118810  0.1289305912345909  0.3969332409480636
  0.5812986641072260  0.4557896481501795  0.0591577715134497
  0.3421101217600971  0.5531117221838232  0.4792311464875219
  0.2191033571881292  0.6508538112877916  0.1415806513929861
  0.4436685411955140  0.7936765430220524  0.8134262042835739
  0.6496313794341427  0.2074293138352658  0.8570338092080727
  0.5532536135684915  0.3448331427817801  0.5291469730108964
  0.7934846511011447  0.4340852557056609  0.1909343946642570
  0.6832580212615184  0.5854433271995647  0.4008159971850072
  0.9267255022055345  0.3200746326697300  0.0613902867018055
  0.3970969060507004  0.0800322919445740  0.7367545875846294
  0.3157216668836185  0.9209860221403009  0.9332622765941093
  0.5947426297974836  0.6859190162251696  0.6012828822664321
  0.0798779172122352  0.3973236266352103  0.2657814107637058
  0.9306264629966550  0.7263919018212294  0.5238588560613346
  0.8025144376539920  0.0663724252664302  0.1871778773096812
  0.2718773998663138  0.2059941789425651  0.8569697254235833
  0.0670164529002236  0.7932524026235406  0.8118000778441161
  0.7127601613586626  0.9282271606949871  0.4754218067437544
  0.2122422553060978  0.2642893841289287  0.1392801302123616
  0.6359580651020189  0.5566927166547924  0.8018121766591415
  0.9096608077709550  0.3638697958571032  0.4651964278757849
  0.4509297150536041  0.0773693395544494  0.1311758476263074
  0.3534695434042086  0.9180283093589581  0.5366244599441767
  0.5626187240467675  0.6309514042654845  0.1973480544807866
  0.0791408639410486  0.4430283549375254  0.8672695828101074
 
             NaN             NaN             NaN
             NaN             NaN             NaN
             NaN             NaN             NaN
             NaN             NaN             NaN
             NaN             NaN             NaN
             NaN             NaN             NaN
             NaN             NaN             NaN
             NaN             NaN             NaN
             NaN             NaN             NaN
             NaN             NaN             NaN
             NaN             NaN             NaN
             NaN             NaN             NaN
             NaN             NaN             NaN
             NaN             NaN             NaN
             NaN             NaN             NaN
             NaN             NaN             NaN
             NaN             NaN             NaN
             NaN             NaN             NaN
             NaN             NaN             NaN
             NaN             NaN             NaN
             NaN             NaN             NaN
             NaN             NaN             NaN
             NaN             NaN             NaN
             NaN             NaN             NaN
             NaN             NaN             NaN
             NaN             NaN             NaN
             NaN             NaN             NaN
             NaN             NaN             NaN
             NaN             NaN             NaN
             NaN             NaN             NaN
             NaN             NaN             NaN
             NaN             NaN             NaN
             NaN             NaN             NaN
             NaN             NaN             NaN
             NaN             NaN             NaN
             NaN             NaN             NaN
             NaN             NaN             NaN
             NaN             NaN             NaN
             NaN             NaN             NaN
             NaN             NaN             NaN
             NaN             NaN             NaN
             NaN             NaN             NaN
             NaN             NaN             NaN
             NaN             NaN             NaN
             NaN             NaN             NaN
             NaN             NaN             NaN
             NaN             NaN             NaN
             NaN             NaN             NaN
             NaN             NaN             NaN
             NaN             NaN             NaN
             NaN             NaN             NaN
             NaN             NaN             NaN
             NaN             NaN             NaN
             NaN             NaN             NaN
             NaN             NaN             NaN
