Ca1 Cr12 F42
1.0
7.242764 -0.025322 -0.009023
-3.593676 6.261510 0.020664
0.056553 0.117060 17.278214
Ca Cr F
1 12 42
direct
0.847722 0.421061 0.324880 Ca
0.295690 0.004233 0.333450 Cr
0.715467 0.716003 0.997280 Cr
0.998573 0.281776 0.669122 Cr
0.359006 0.997768 0.833645 Cr
0.643976 0.652254 0.506487 Cr
0.996329 0.349690 0.159337 Cr
0.646202 0.151686 0.503578 Cr
0.490915 0.349823 0.160367 Cr
0.858518 0.499580 0.833842 Cr
0.356489 0.495849 0.833196 Cr
0.147645 0.652488 0.505881 Cr
0.496573 0.851719 0.162833 Cr
0.571306 0.830951 0.058346 F
0.256717 0.419183 0.729171 F
0.170190 0.742090 0.396947 F
0.447711 0.263836 0.270049 F
0.827116 0.567184 0.938247 F
0.740605 0.178539 0.607551 F
0.878151 0.062409 0.731343 F
0.187252 0.122272 0.395561 F
0.921528 0.802129 0.064165 F
0.111227 0.185176 0.603097 F
0.051687 0.860357 0.275231 F
0.825347 0.935424 0.934970 F
0.121250 0.551664 0.608454 F
0.431600 0.878602 0.269112 F
0.455764 0.577751 0.936218 F
0.885083 0.429472 0.729837 F
0.568222 0.136711 0.393317 F
0.556483 0.444974 0.056977 F
0.353516 0.569592 0.481018 F
0.205069 0.643573 0.141961 F
0.439096 0.788236 0.809127 F
0.651005 0.204265 0.854642 F
0.556406 0.356338 0.522214 F
0.786863 0.439998 0.184648 F
0.689231 0.623052 0.400539 F
0.922035 0.311360 0.060942 F
0.394756 0.078468 0.735463 F
0.321125 0.916908 0.931828 F
0.603333 0.686936 0.604700 F
0.051779 0.387245 0.267183 F
0.938295 0.735611 0.525367 F
0.786575 0.058668 0.186362 F
0.275324 0.205502 0.857621 F
0.065239 0.793012 0.813027 F
0.732993 0.947159 0.481309 F
0.196861 0.253985 0.145325 F
0.636004 0.554710 0.800928 F
0.921348 0.380365 0.465883 F
0.436665 0.071790 0.130480 F
0.366398 0.932412 0.535114 F
0.551395 0.627300 0.196204 F
0.078579 0.440252 0.866156 F
