Ca1 Cr1 F6                              
   1.00000000000000     
    -2.5925841993992473   -4.4848806770933516    0.0026426600587225
    -5.1905753461894770    0.0051167543640252    0.0065858615745643
    -2.5881946383259122   -1.4940501298391458   -4.7397136804230859
   Ca   Cr   F 
     1     1     6
Direct
  0.5000395970266386  0.5000121502166267  0.4999417945109716
  0.0000065258805267  0.0000500193638006  0.9999629982148062
  0.7870282258625457  0.0762271774950794  0.7752340509792254
  0.3614039712923556  0.7868472120422971  0.7756472073275616
  0.0766222593068356  0.3604961889828943  0.7757618399151944
  0.2130315697829309  0.9237489980354836  0.2248037515688276
  0.6384975340322412  0.2132253844669613  0.2243830579918443
  0.9233703168159260  0.6393928693968640  0.2242652994915758
 
  0.00000000E+00  0.00000000E+00  0.00000000E+00
  0.00000000E+00  0.00000000E+00  0.00000000E+00
  0.00000000E+00  0.00000000E+00  0.00000000E+00
  0.00000000E+00  0.00000000E+00  0.00000000E+00
  0.00000000E+00  0.00000000E+00  0.00000000E+00
  0.00000000E+00  0.00000000E+00  0.00000000E+00
  0.00000000E+00  0.00000000E+00  0.00000000E+00
  0.00000000E+00  0.00000000E+00  0.00000000E+00
