Cr4 F12                                 
   1.00000000000000     
     4.9884135684174389   -0.1561496402852265   -0.0677948391931543
     0.1621514278272135    5.2582634975445810   -0.0202672554834268
     0.1061951029337475    0.0107211539424615    7.2776298499325094
   Cr   F 
     4    12
Direct
  0.4999788267797101  0.9999744755841249  0.9999522510859791
  0.9999777932695793  0.5000353627747032  0.0000307000175823
  0.5000141083852085  0.9999784680143264  0.4999698595130155
  0.9999984327753424  0.5000173926609719  0.5000492640061225
  0.3150109782396839  0.6915165130000744  0.9418438000500160
  0.6849661788384083  0.3083844925155077  0.0581017308283407
  0.8146779919433271  0.8084187217388816  0.0584962103812146
  0.1852844408924028  0.1916607312673761  0.9415169566324835
  0.3138149233665857  0.6928172081309398  0.5594922392081259
  0.6862375664017719  0.3071723498919638  0.4405041055455357
  0.8140100095714189  0.8071710797044247  0.4418584334105233
  0.1860053076105146  0.1928028920325886  0.5581720363250611
  0.6185363412383822  0.0282158394280145  0.7499040474490499
  0.3815068224128879  0.9717745819848247  0.2500335000728029
  0.8812925949758821  0.5273141724472552  0.7501440445952809
  0.1186876832989157  0.4727457188240223  0.2499308208788662
 
  0.00000000E+00  0.00000000E+00  0.00000000E+00
  0.00000000E+00  0.00000000E+00  0.00000000E+00
  0.00000000E+00  0.00000000E+00  0.00000000E+00
  0.00000000E+00  0.00000000E+00  0.00000000E+00
  0.00000000E+00  0.00000000E+00  0.00000000E+00
  0.00000000E+00  0.00000000E+00  0.00000000E+00
  0.00000000E+00  0.00000000E+00  0.00000000E+00
  0.00000000E+00  0.00000000E+00  0.00000000E+00
  0.00000000E+00  0.00000000E+00  0.00000000E+00
  0.00000000E+00  0.00000000E+00  0.00000000E+00
  0.00000000E+00  0.00000000E+00  0.00000000E+00
  0.00000000E+00  0.00000000E+00  0.00000000E+00
  0.00000000E+00  0.00000000E+00  0.00000000E+00
  0.00000000E+00  0.00000000E+00  0.00000000E+00
  0.00000000E+00  0.00000000E+00  0.00000000E+00
  0.00000000E+00  0.00000000E+00  0.00000000E+00
