V4 F14                                  
   1.00000000000000     
    -7.3836462309693482   -0.0126048360863784    0.0365248139226279
    -3.7245519468947803   -5.4884212255448643   -3.1550800456975949
    -3.6705116712787089   -5.4534243076961006    3.2025917181496282
   F    V 
    14     4
Direct
  0.7489302476358830  0.3961316967237565  0.1031596560954497
  0.2510242957682607  0.6029390360896514  0.8972174645563911
  0.9674404926751876  0.8035960530850303  0.2581145554872109
  0.0300873700002029  0.1984401666411060  0.7414968070263015
  0.4654661907677280  0.7625208318635330  0.3053357216117405
  0.5383094842435483  0.2360166974845370  0.6937048468114568
  0.0528632360034251  0.5849855639140387  0.6682503776805859
  0.3061255580621562  0.4226210514770230  0.3353088549806245
  0.5553108842374428  0.1685528664417149  0.0819624980647617
  0.8097287918880838  0.8301694607396044  0.9267782857290001
  0.9447884014665817  0.4156244431717440  0.3321835679449308
  0.6905854809081333  0.5791868241301614  0.6652208209023485
  0.4464616283627265  0.8311375302734589  0.9177668509372623
  0.1933059834669777  0.1685916474515210  0.0726619934979595
  0.5018661073496773  0.9993908320518443  0.9995481775729758
  0.9980072933247754  0.5012240923776830  0.5000557943767632
  0.0004639159361801  0.4990262585377465  0.0002138247268704
  0.4992346379030153  0.4998449475458244  0.0010199019974024
 
  0.00000000E+00  0.00000000E+00  0.00000000E+00
  0.00000000E+00  0.00000000E+00  0.00000000E+00
  0.00000000E+00  0.00000000E+00  0.00000000E+00
  0.00000000E+00  0.00000000E+00  0.00000000E+00
  0.00000000E+00  0.00000000E+00  0.00000000E+00
  0.00000000E+00  0.00000000E+00  0.00000000E+00
  0.00000000E+00  0.00000000E+00  0.00000000E+00
  0.00000000E+00  0.00000000E+00  0.00000000E+00
  0.00000000E+00  0.00000000E+00  0.00000000E+00
  0.00000000E+00  0.00000000E+00  0.00000000E+00
  0.00000000E+00  0.00000000E+00  0.00000000E+00
  0.00000000E+00  0.00000000E+00  0.00000000E+00
  0.00000000E+00  0.00000000E+00  0.00000000E+00
  0.00000000E+00  0.00000000E+00  0.00000000E+00
  0.00000000E+00  0.00000000E+00  0.00000000E+00
  0.00000000E+00  0.00000000E+00  0.00000000E+00
  0.00000000E+00  0.00000000E+00  0.00000000E+00
  0.00000000E+00  0.00000000E+00  0.00000000E+00
