Ca9 Mn12 F42                            
   1.00000000000000     
     7.4939400158665066   -0.0439611379912636    0.0110992946824684
    -3.7896425791903288    6.5467239792965950    0.0478815504162037
     0.0455526325580283    0.1653286033485143   18.3809476847882252
   Ca   Mn   F 
     9    12    42
Direct
  0.5018642112989866  0.8584629733840714  0.6839990001304912
  0.1552404363933775  0.6342394684339894  0.0034452073188618
  0.3413091948749667  0.4992915153968198  0.3458704900327021
  0.5372023212013701  0.3730281455933380  0.6639733087491848
  0.8339518712318679  0.0059223011741452  0.3329646689158352
  0.1774378526634521  0.1409988038472036  0.0019807609545666
  0.8589113752932178  0.0646196400499193  0.8411577134036676
  0.9786255405952033  0.7774067405488978  0.1777213175429040
  0.1572016336118764  0.1439707188388368  0.5093550104891875
  0.3358710111763159  0.0022806125370636  0.3285121244046607
  0.0157896978607894  0.3604935226047630  0.6536482412815658
  0.6730299070470807  0.6650044975949925  0.0066558611575616
  0.3334771149576738  0.0108503073832438  0.8370497200199907
  0.0053083936108820  0.3020788536285934  0.1622019162717834
  0.6572861409658444  0.6794638443830507  0.5014766605877412
  0.4974885957904220  0.8162038740130129  0.1690805284364103
  0.1691605507531193  0.6731348733019971  0.4984660214081984
  0.3481899726669724  0.5129496394261679  0.8348875534684694
  0.8436446874355923  0.5237935024411868  0.8280463712756401
  0.6694914974510695  0.1824840478667795  0.4951720891034554
  0.4847703274177704  0.3025456434197622  0.1665323171413746
  0.6503049969929009  0.1480001953447001  0.6118313416264911
  0.8422820553299957  0.5678308448311142  0.9432246570246576
  0.4375130479801115  0.3027545388587640  0.2798591494124238
  0.2047708871844449  0.7082350495883958  0.3847786811007623
  0.5079649391516412  0.7959906947615281  0.0570937154383131
  0.2708457405576254  0.5119885683877712  0.7260001792432291
  0.8488602744473184  0.9515028317153877  0.9532393028996822
  0.0324238249644893  0.8775369901372301  0.2896547177385145
  0.2063788120570180  0.2433725406940752  0.6215866475528813
  0.9859536034246617  0.7988614522535400  0.0572245064273744
  0.8449580463453614  0.0871444950263438  0.7213166328973841
  0.1696995285557961  0.1576227296886898  0.3890849047776257
  0.4987479234052898  0.3607235503219428  0.0513868974691363
  0.6336432439631423  0.1411752234252148  0.3782795997331618
  0.8588837329548227  0.4718921848738091  0.7118206403400791
  0.3883883855322807  0.5492196862419192  0.9478401447325737
  0.2282274854911606  0.6797968913367853  0.6085474409938172
  0.4892459893811534  0.8084194934251627  0.2857066430910038
  0.7960004901638058  0.4030960413302793  0.1712510390515334
  0.5609786296332189  0.3751272537503780  0.5294390306207646
  0.6498491521865475  0.2092855473667328  0.8514654893085307
  0.4955893087842611  0.8320644392700061  0.8156308235473304
  0.3358837068486906  0.5148127810623251  0.4732281867158008
  0.1804347011838772  0.6253021435141832  0.1423857473291719
  0.0595093442489372  0.3297699891578247  0.2754040656538663
  0.6171861279452244  0.6900993861711626  0.6146996776848255
  0.2879657298345464  0.9379251094523724  0.9480999282516578
  0.3873066426311240  0.0687257584609000  0.7267667731371148
  0.6704388173738636  0.6834495345160150  0.3865458377967101
  0.0254597077358838  0.3148591996704369  0.0456719249511579
  0.1688776832388754  0.1471803137805807  0.1358062629606636
  0.8020650660527480  0.9997352761192673  0.4744228824617238
  0.0074038948654476  0.8411472572301477  0.8192260893696499
  0.2191578037738182  0.2049794972850876  0.8722799178972593
  0.9663190056483870  0.7805645757140809  0.5154682571233948
  0.8086208086518951  0.0015693223758930  0.1987486847697397
  0.0503815833511112  0.4331363910374364  0.8637173137766183
  0.6166151992416218  0.6201368447888385  0.1692194175228536
  0.3555902270259637  0.9927047531234976  0.4907890777346537
  0.3661741178459863  0.9918285876030311  0.1973529413167938
  0.5862861970706632  0.5127857839660734  0.7816065719911336
  0.9745612026464627  0.3614227264731937  0.5299013744336918
 
  0.00000000E+00  0.00000000E+00  0.00000000E+00
  0.00000000E+00  0.00000000E+00  0.00000000E+00
  0.00000000E+00  0.00000000E+00  0.00000000E+00
  0.00000000E+00  0.00000000E+00  0.00000000E+00
  0.00000000E+00  0.00000000E+00  0.00000000E+00
  0.00000000E+00  0.00000000E+00  0.00000000E+00
  0.00000000E+00  0.00000000E+00  0.00000000E+00
  0.00000000E+00  0.00000000E+00  0.00000000E+00
  0.00000000E+00  0.00000000E+00  0.00000000E+00
  0.00000000E+00  0.00000000E+00  0.00000000E+00
  0.00000000E+00  0.00000000E+00  0.00000000E+00
  0.00000000E+00  0.00000000E+00  0.00000000E+00
  0.00000000E+00  0.00000000E+00  0.00000000E+00
  0.00000000E+00  0.00000000E+00  0.00000000E+00
  0.00000000E+00  0.00000000E+00  0.00000000E+00
  0.00000000E+00  0.00000000E+00  0.00000000E+00
  0.00000000E+00  0.00000000E+00  0.00000000E+00
  0.00000000E+00  0.00000000E+00  0.00000000E+00
  0.00000000E+00  0.00000000E+00  0.00000000E+00
  0.00000000E+00  0.00000000E+00  0.00000000E+00
  0.00000000E+00  0.00000000E+00  0.00000000E+00
  0.00000000E+00  0.00000000E+00  0.00000000E+00
  0.00000000E+00  0.00000000E+00  0.00000000E+00
  0.00000000E+00  0.00000000E+00  0.00000000E+00
  0.00000000E+00  0.00000000E+00  0.00000000E+00
  0.00000000E+00  0.00000000E+00  0.00000000E+00
  0.00000000E+00  0.00000000E+00  0.00000000E+00
  0.00000000E+00  0.00000000E+00  0.00000000E+00
  0.00000000E+00  0.00000000E+00  0.00000000E+00
  0.00000000E+00  0.00000000E+00  0.00000000E+00
  0.00000000E+00  0.00000000E+00  0.00000000E+00
  0.00000000E+00  0.00000000E+00  0.00000000E+00
  0.00000000E+00  0.00000000E+00  0.00000000E+00
  0.00000000E+00  0.00000000E+00  0.00000000E+00
  0.00000000E+00  0.00000000E+00  0.00000000E+00
  0.00000000E+00  0.00000000E+00  0.00000000E+00
  0.00000000E+00  0.00000000E+00  0.00000000E+00
  0.00000000E+00  0.00000000E+00  0.00000000E+00
  0.00000000E+00  0.00000000E+00  0.00000000E+00
  0.00000000E+00  0.00000000E+00  0.00000000E+00
  0.00000000E+00  0.00000000E+00  0.00000000E+00
  0.00000000E+00  0.00000000E+00  0.00000000E+00
  0.00000000E+00  0.00000000E+00  0.00000000E+00
  0.00000000E+00  0.00000000E+00  0.00000000E+00
  0.00000000E+00  0.00000000E+00  0.00000000E+00
  0.00000000E+00  0.00000000E+00  0.00000000E+00
  0.00000000E+00  0.00000000E+00  0.00000000E+00
  0.00000000E+00  0.00000000E+00  0.00000000E+00
  0.00000000E+00  0.00000000E+00  0.00000000E+00
  0.00000000E+00  0.00000000E+00  0.00000000E+00
  0.00000000E+00  0.00000000E+00  0.00000000E+00
  0.00000000E+00  0.00000000E+00  0.00000000E+00
  0.00000000E+00  0.00000000E+00  0.00000000E+00
  0.00000000E+00  0.00000000E+00  0.00000000E+00
  0.00000000E+00  0.00000000E+00  0.00000000E+00
  0.00000000E+00  0.00000000E+00  0.00000000E+00
  0.00000000E+00  0.00000000E+00  0.00000000E+00
  0.00000000E+00  0.00000000E+00  0.00000000E+00
  0.00000000E+00  0.00000000E+00  0.00000000E+00
  0.00000000E+00  0.00000000E+00  0.00000000E+00
  0.00000000E+00  0.00000000E+00  0.00000000E+00
  0.00000000E+00  0.00000000E+00  0.00000000E+00
  0.00000000E+00  0.00000000E+00  0.00000000E+00
