Ca2 Co4 F12                             
   1.00000000000000     
     5.6457800766780188   -0.0000015013628957    0.0590069415850600
    -0.0000028993428823    7.7228682148657253    0.0000051100454217
     0.0691307083106021    0.0000008018264167    5.4958207776332912
   Ca   Co   F 
     2     4    12
Direct
  0.5643486155792701  0.2499999384738913  0.5091488122324179
  0.4357795563989413  0.7499999225531937  0.4906652133545606
  0.0000070435286474  0.5001179902564488  0.5001801677215099
  0.4999492508349519  0.9999381965619492  0.9999803798268232
  0.0000064233735273  0.9998814947352841  0.5001810655960170
  0.4999504784974675  0.5000609658194151  0.9999741256586603
  0.9686544728116644  0.2499997188509155  0.4002834271564595
  0.4770234448890065  0.2500000266295785  0.1067995914537150
  0.0311888838778316  0.7499994250696673  0.6000200022002247
  0.5234851690933340  0.7500003600009819  0.8935088303505907
  0.6847276838717065  0.5385029410354463  0.3205582067124055
  0.2337116216628203  0.9361743790348456  0.2309965737229902
  0.3153898716135686  0.0382457761568915  0.6791458062295064
  0.7659718504207831  0.4363332712296568  0.7689319070817859
  0.3153918616529552  0.4617561888692734  0.6791430387081405
  0.7659709606408924  0.0636664291373208  0.7689312786584850
  0.6847324626905902  0.9614974724149121  0.3205571990153260
  0.2337103485620418  0.5638255031703281  0.2309943743203675
 
  0.00000000E+00  0.00000000E+00  0.00000000E+00
  0.00000000E+00  0.00000000E+00  0.00000000E+00
  0.00000000E+00  0.00000000E+00  0.00000000E+00
  0.00000000E+00  0.00000000E+00  0.00000000E+00
  0.00000000E+00  0.00000000E+00  0.00000000E+00
  0.00000000E+00  0.00000000E+00  0.00000000E+00
  0.00000000E+00  0.00000000E+00  0.00000000E+00
  0.00000000E+00  0.00000000E+00  0.00000000E+00
  0.00000000E+00  0.00000000E+00  0.00000000E+00
  0.00000000E+00  0.00000000E+00  0.00000000E+00
  0.00000000E+00  0.00000000E+00  0.00000000E+00
  0.00000000E+00  0.00000000E+00  0.00000000E+00
  0.00000000E+00  0.00000000E+00  0.00000000E+00
  0.00000000E+00  0.00000000E+00  0.00000000E+00
  0.00000000E+00  0.00000000E+00  0.00000000E+00
  0.00000000E+00  0.00000000E+00  0.00000000E+00
  0.00000000E+00  0.00000000E+00  0.00000000E+00
  0.00000000E+00  0.00000000E+00  0.00000000E+00
