Cr12 F42                                
   1.00000000000000     
     7.1389538638246890   -0.0281151158907810   -0.0087629494793708
    -3.5448769898040684    6.2002069560950561   -0.0095923103404888
     0.0552453273615050    0.0341699425973917   16.8153470553561313
   Cr   F 
    12    42
Direct
  0.2781758762227753  0.0032830095337317  0.3333741373947987
  0.7225735104332642  0.7205469216333995  0.0000554000958459
  0.0016500793189849  0.2773786512153720  0.6662865585715849
  0.3587525849649964  0.9952430857679104  0.8348055334691651
  0.6409719051434024  0.6422190535517203  0.4993175911185972
  0.9990037474620053  0.3614579118310388  0.1657695873785130
  0.6414311911018871  0.1414787298227722  0.5001561224376658
  0.4969415297830224  0.3604255909023877  0.1669601139878409
  0.8595258614393799  0.4965734820010468  0.8345209625797025
  0.3586038500343420  0.4945139738883171  0.8333800234812117
  0.1405612941480641  0.6428091579215476  0.4998523865574498
  0.5004587637386422  0.8622580155555397  0.1652505603561920
  0.5853126527820720  0.8445805466003264  0.0589050292683311
  0.2597610945184812  0.4115938855668801  0.7266150845356520
  0.1566296251876622  0.7444018617038850  0.3933970646591831
  0.4264048860767744  0.2640267003398051  0.2741803266697289
  0.8337117285936131  0.5699144911327068  0.9414438134368766
  0.7408411982328218  0.1685808692102313  0.6071111683657975
  0.8833477900991866  0.0658253621651284  0.7328513458792116
  0.1872897524882120  0.1207636635398401  0.4014155735485332
  0.9310657055901927  0.8130633787229726  0.0678354892943176
  0.1087973311652917  0.1744212103664324  0.5988064704457301
  0.0661132363662915  0.8972109673142867  0.2670513660717546
  0.8276514372687629  0.9308214029625930  0.9328823811503710
  0.1211772459293172  0.5386118474928736  0.6062075278435444
  0.4177652802052663  0.8836280934678982  0.2718748513641103
  0.4624007146978997  0.5792364598483744  0.9395485814780358
  0.8921209157659789  0.4287190480901444  0.7274559073347291
  0.5408693162426204  0.1106330203763335  0.3931609665567706
  0.5678671005433387  0.4592076865847190  0.0600458920890716
  0.3533028385513219  0.5652250589742778  0.4715045547927730
  0.2088987004470511  0.6499225103022042  0.1386107636965903
  0.4376988587287087  0.7859769856391736  0.8069024505980806
  0.6489429958703496  0.1983425085135835  0.8563322550170724
  0.5524776929358595  0.3519253774586701  0.5208238403205243
  0.7960389827817309  0.4483153365770320  0.1878835927693032
  0.6940516312499483  0.6078647483045643  0.4003780194401685
  0.9121981976875304  0.3110362657169361  0.0668206511576130
  0.3963399663494300  0.0827849990175622  0.7358736461703757
  0.3195492004341247  0.9071320273454901  0.9336372273171349
  0.5897467278587243  0.6807351613627617  0.5980431079020860
  0.0871244659128294  0.4103722662207474  0.2645794962935710
  0.9283340132156752  0.7209635246186323  0.5279292388046102
  0.7909577242594708  0.0729729530683230  0.1930486649045804
  0.2786530834006768  0.2040891532335323  0.8617759056961987
  0.0686232498951043  0.7947979106661123  0.8128770640534597
  0.7316277424714812  0.9334779308145542  0.4781652341588796
  0.1997211580318989  0.2715121062427528  0.1441469546992451
  0.6389362239967369  0.5534226895629857  0.8004295744431289
  0.9193720984847857  0.3632133679392311  0.4664489679959800
  0.4408796166513014  0.0830700176925205  0.1327451574176450
  0.3626119700631776  0.9215263850206554  0.5337530623118170
  0.5563118750366698  0.6400350612281613  0.1995081432059891
  0.0798237801408277  0.4378575753693354  0.8673646094128671
 
  0.00000000E+00  0.00000000E+00  0.00000000E+00
  0.00000000E+00  0.00000000E+00  0.00000000E+00
  0.00000000E+00  0.00000000E+00  0.00000000E+00
  0.00000000E+00  0.00000000E+00  0.00000000E+00
  0.00000000E+00  0.00000000E+00  0.00000000E+00
  0.00000000E+00  0.00000000E+00  0.00000000E+00
  0.00000000E+00  0.00000000E+00  0.00000000E+00
  0.00000000E+00  0.00000000E+00  0.00000000E+00
  0.00000000E+00  0.00000000E+00  0.00000000E+00
  0.00000000E+00  0.00000000E+00  0.00000000E+00
  0.00000000E+00  0.00000000E+00  0.00000000E+00
  0.00000000E+00  0.00000000E+00  0.00000000E+00
  0.00000000E+00  0.00000000E+00  0.00000000E+00
  0.00000000E+00  0.00000000E+00  0.00000000E+00
  0.00000000E+00  0.00000000E+00  0.00000000E+00
  0.00000000E+00  0.00000000E+00  0.00000000E+00
  0.00000000E+00  0.00000000E+00  0.00000000E+00
  0.00000000E+00  0.00000000E+00  0.00000000E+00
  0.00000000E+00  0.00000000E+00  0.00000000E+00
  0.00000000E+00  0.00000000E+00  0.00000000E+00
  0.00000000E+00  0.00000000E+00  0.00000000E+00
  0.00000000E+00  0.00000000E+00  0.00000000E+00
  0.00000000E+00  0.00000000E+00  0.00000000E+00
  0.00000000E+00  0.00000000E+00  0.00000000E+00
  0.00000000E+00  0.00000000E+00  0.00000000E+00
  0.00000000E+00  0.00000000E+00  0.00000000E+00
  0.00000000E+00  0.00000000E+00  0.00000000E+00
  0.00000000E+00  0.00000000E+00  0.00000000E+00
  0.00000000E+00  0.00000000E+00  0.00000000E+00
  0.00000000E+00  0.00000000E+00  0.00000000E+00
  0.00000000E+00  0.00000000E+00  0.00000000E+00
  0.00000000E+00  0.00000000E+00  0.00000000E+00
  0.00000000E+00  0.00000000E+00  0.00000000E+00
  0.00000000E+00  0.00000000E+00  0.00000000E+00
  0.00000000E+00  0.00000000E+00  0.00000000E+00
  0.00000000E+00  0.00000000E+00  0.00000000E+00
  0.00000000E+00  0.00000000E+00  0.00000000E+00
  0.00000000E+00  0.00000000E+00  0.00000000E+00
  0.00000000E+00  0.00000000E+00  0.00000000E+00
  0.00000000E+00  0.00000000E+00  0.00000000E+00
  0.00000000E+00  0.00000000E+00  0.00000000E+00
  0.00000000E+00  0.00000000E+00  0.00000000E+00
  0.00000000E+00  0.00000000E+00  0.00000000E+00
  0.00000000E+00  0.00000000E+00  0.00000000E+00
  0.00000000E+00  0.00000000E+00  0.00000000E+00
  0.00000000E+00  0.00000000E+00  0.00000000E+00
  0.00000000E+00  0.00000000E+00  0.00000000E+00
  0.00000000E+00  0.00000000E+00  0.00000000E+00
  0.00000000E+00  0.00000000E+00  0.00000000E+00
  0.00000000E+00  0.00000000E+00  0.00000000E+00
  0.00000000E+00  0.00000000E+00  0.00000000E+00
  0.00000000E+00  0.00000000E+00  0.00000000E+00
  0.00000000E+00  0.00000000E+00  0.00000000E+00
  0.00000000E+00  0.00000000E+00  0.00000000E+00
