Nickel                                  
   1.00000000000000     
     3.4529405294077269   -0.0000000035658699    0.0000000017367978
    -0.0000000036018975    3.4529425250555077    0.0000000140968186
     0.0000000015856888    0.0000000141523660    3.4529543738964286
   Ni
     4
Direct
 -0.0000000703700817 -0.0000000010100208 -0.0000000019792133
 -0.0000000665305716  0.4999999989765764  0.5000000036010643
  0.5000000969366037  0.0000000001049164  0.4999999960004504
  0.5000000399640494  0.5000000019285280  0.0000000023776986
 
  0.00000000E+00  0.00000000E+00  0.00000000E+00
  0.00000000E+00  0.00000000E+00  0.00000000E+00
  0.00000000E+00  0.00000000E+00  0.00000000E+00
  0.00000000E+00  0.00000000E+00  0.00000000E+00
