Ca9 Fe12 F42                            
   1.00000000000000     
     7.3231986426524260   -0.0452028452028786    0.0399161118082244
    -3.6978697660015576    6.4966528271162227    0.0364326718540704
     0.1658622293516864    0.2850138556222074   18.2789724491965018
   Ca   Fe   F 
     9    12    42
Direct
  0.4936227647350473  0.8538107725755192  0.6799890877762280
  0.1658545474827144  0.6395777055753986  0.0050652285200232
  0.3408349210327410  0.5053056247256986  0.3407023921999574
  0.5352692039535202  0.3831496051267158  0.6656539186315564
  0.8296346054326045  0.0134092130127093  0.3328225295574376
  0.1869941077516911  0.1554683591849256  0.0021579590848195
  0.8591419538946067  0.0517192013192968  0.8400004396356467
  0.9824349147693945  0.7873160028197722  0.1769763614486912
  0.1501664862825835  0.1447289971574673  0.5093121998565528
  0.3289738821303185  0.0030815159644730  0.3362451887969976
  0.0065594824302294  0.3456833007945285  0.6635820234059331
  0.6837726396462679  0.6667625257705566  0.0041403553404812
  0.3404618327571052  0.0117885960048666  0.8364572529566743
  0.9960850892109103  0.3067027236730209  0.1618624327857061
  0.6611534386034121  0.6694355838384326  0.4950772681226854
  0.4982023280454418  0.8183746878055063  0.1677662851035625
  0.1681558986851547  0.6660845832503377  0.5006668413860371
  0.3506804720171982  0.5121470372362240  0.8364088624630632
  0.8464261668544730  0.5203955205320959  0.8321871059038189
  0.6642437194921162  0.1738619186747075  0.4983663634537051
  0.4835686537715440  0.3092120863531524  0.1666623934977458
  0.6827859113842563  0.1708871265282569  0.6151484422031250
  0.8432486417912436  0.5623707827094031  0.9459811976135649
  0.4274554364909653  0.2827486505264672  0.2761389294752128
  0.1996067786989230  0.7121004410340641  0.3916984674966380
  0.5231871967114318  0.7852456341841161  0.0562079123039987
  0.2823717889641457  0.5044196407354009  0.7257323694659131
  0.8542290279872442  0.9537590457677306  0.9532666615870830
  0.0482171409809350  0.8878353850037288  0.2894304331142250
  0.1906932106557540  0.2409025693847081  0.6226475951320191
  0.9926232583778770  0.8087539519472050  0.0560640493878694
  0.8369544908479210  0.0621398598344540  0.7209693472546534
  0.1735010195648226  0.1633095626389563  0.3889355853035201
  0.5142644596773726  0.3717756444018692  0.0561308568183446
  0.6140274609245325  0.1402663767211636  0.3831469082231045
  0.8576670867069898  0.4645459885161561  0.7173808806209837
  0.3883404744982919  0.5276483828337912  0.9494607307350046
  0.1976078399744752  0.6451172313892357  0.6090153872852885
  0.4699067397227554  0.8312515364062585  0.2849482568502931
  0.8010214626161855  0.4208036206969379  0.1770739274288659
  0.5550766314991399  0.3685983854686627  0.5322287168551041
  0.6596534920311962  0.2126962810947816  0.8488877288709596
  0.4864681607160878  0.8285450573228644  0.8149519370601609
  0.3509887088616406  0.5241266584073082  0.4708621016832371
  0.1837873133373979  0.6230044144517972  0.1383773434431013
  0.0492010111004605  0.3347719654968054  0.2747012185105189
  0.6171770972538877  0.6923332593833269  0.6092766937043751
  0.3016511925598432  0.9473827430404868  0.9452557367963235
  0.3838098720988482  0.0699688792910906  0.7277314328397271
  0.6729863088194872  0.6815675411640323  0.3796990270142800
  0.0099827015183849  0.3131552875163476  0.0462120999422427
  0.1664370549179608  0.1670303501915091  0.1360410692513511
  0.7873596500717059  0.9844588140517725  0.4697371047635086
  0.0127492461096918  0.8274443219773870  0.8203148120218020
  0.2190440289093520  0.2007276606876044  0.8669349950613361
  0.9642578728501451  0.7803346631564416  0.5159857408671863
  0.8064543750169195  0.0044105124740697  0.2004327244322810
  0.0609889642503227  0.4403996950779202  0.8684208173657466
  0.6032014457518631  0.6213099275272763  0.1834777131222552
  0.3570090611134347  0.9838901410241517  0.5069933405341749
  0.3725470582529155  0.9975673216548960  0.1687726219841499
  0.5999407411099843  0.5331177473672790  0.7861408210813724
  0.9722814762942084  0.3522613795168689  0.5068837745677290
 
  0.00000000E+00  0.00000000E+00  0.00000000E+00
  0.00000000E+00  0.00000000E+00  0.00000000E+00
  0.00000000E+00  0.00000000E+00  0.00000000E+00
  0.00000000E+00  0.00000000E+00  0.00000000E+00
  0.00000000E+00  0.00000000E+00  0.00000000E+00
  0.00000000E+00  0.00000000E+00  0.00000000E+00
  0.00000000E+00  0.00000000E+00  0.00000000E+00
  0.00000000E+00  0.00000000E+00  0.00000000E+00
  0.00000000E+00  0.00000000E+00  0.00000000E+00
  0.00000000E+00  0.00000000E+00  0.00000000E+00
  0.00000000E+00  0.00000000E+00  0.00000000E+00
  0.00000000E+00  0.00000000E+00  0.00000000E+00
  0.00000000E+00  0.00000000E+00  0.00000000E+00
  0.00000000E+00  0.00000000E+00  0.00000000E+00
  0.00000000E+00  0.00000000E+00  0.00000000E+00
  0.00000000E+00  0.00000000E+00  0.00000000E+00
  0.00000000E+00  0.00000000E+00  0.00000000E+00
  0.00000000E+00  0.00000000E+00  0.00000000E+00
  0.00000000E+00  0.00000000E+00  0.00000000E+00
  0.00000000E+00  0.00000000E+00  0.00000000E+00
  0.00000000E+00  0.00000000E+00  0.00000000E+00
  0.00000000E+00  0.00000000E+00  0.00000000E+00
  0.00000000E+00  0.00000000E+00  0.00000000E+00
  0.00000000E+00  0.00000000E+00  0.00000000E+00
  0.00000000E+00  0.00000000E+00  0.00000000E+00
  0.00000000E+00  0.00000000E+00  0.00000000E+00
  0.00000000E+00  0.00000000E+00  0.00000000E+00
  0.00000000E+00  0.00000000E+00  0.00000000E+00
  0.00000000E+00  0.00000000E+00  0.00000000E+00
  0.00000000E+00  0.00000000E+00  0.00000000E+00
  0.00000000E+00  0.00000000E+00  0.00000000E+00
  0.00000000E+00  0.00000000E+00  0.00000000E+00
  0.00000000E+00  0.00000000E+00  0.00000000E+00
  0.00000000E+00  0.00000000E+00  0.00000000E+00
  0.00000000E+00  0.00000000E+00  0.00000000E+00
  0.00000000E+00  0.00000000E+00  0.00000000E+00
  0.00000000E+00  0.00000000E+00  0.00000000E+00
  0.00000000E+00  0.00000000E+00  0.00000000E+00
  0.00000000E+00  0.00000000E+00  0.00000000E+00
  0.00000000E+00  0.00000000E+00  0.00000000E+00
  0.00000000E+00  0.00000000E+00  0.00000000E+00
  0.00000000E+00  0.00000000E+00  0.00000000E+00
  0.00000000E+00  0.00000000E+00  0.00000000E+00
  0.00000000E+00  0.00000000E+00  0.00000000E+00
  0.00000000E+00  0.00000000E+00  0.00000000E+00
  0.00000000E+00  0.00000000E+00  0.00000000E+00
  0.00000000E+00  0.00000000E+00  0.00000000E+00
  0.00000000E+00  0.00000000E+00  0.00000000E+00
  0.00000000E+00  0.00000000E+00  0.00000000E+00
  0.00000000E+00  0.00000000E+00  0.00000000E+00
  0.00000000E+00  0.00000000E+00  0.00000000E+00
  0.00000000E+00  0.00000000E+00  0.00000000E+00
  0.00000000E+00  0.00000000E+00  0.00000000E+00
  0.00000000E+00  0.00000000E+00  0.00000000E+00
  0.00000000E+00  0.00000000E+00  0.00000000E+00
  0.00000000E+00  0.00000000E+00  0.00000000E+00
  0.00000000E+00  0.00000000E+00  0.00000000E+00
  0.00000000E+00  0.00000000E+00  0.00000000E+00
  0.00000000E+00  0.00000000E+00  0.00000000E+00
  0.00000000E+00  0.00000000E+00  0.00000000E+00
  0.00000000E+00  0.00000000E+00  0.00000000E+00
  0.00000000E+00  0.00000000E+00  0.00000000E+00
  0.00000000E+00  0.00000000E+00  0.00000000E+00
