Ca3 Mn12 F42                            
   1.00000000000000     
     7.3554381576185852   -0.0175435032265010    0.1141478980260615
    -3.6940581742714089    6.4515954290448381    0.0387836056279372
     0.0745797746572470    0.0859457582110193   17.3504541040875253
   Ca   Mn   F 
     3    12    42
Direct
  0.4926059524023003  0.3485874538364726  0.6561942703955950
  0.1518173003747734  0.1327820249882024  0.0042817965874704
  0.8495138268220970  0.9915311817980239  0.3302174204338613
  0.2998567788476905  0.9937077810843391  0.3311527035914779
  0.9934906001493644  0.2964334674631601  0.6651816757662914
  0.7051911950581982  0.6948398046945883  0.0001564560548672
  0.3410762660875974  0.0008719156239536  0.8417958625557631
  0.9968820785303407  0.3179037488274332  0.1694979744425140
  0.6551864754542294  0.6587513256174660  0.4933441590514320
  0.4861415407262371  0.8306465923432924  0.1639629467093542
  0.1485634108097003  0.6438820693877716  0.4991075478033764
  0.3584124268572282  0.5122240545393026  0.8328321608874560
  0.8516911982424631  0.4924163660788068  0.8357716511508357
  0.6432309241519150  0.1497928291220418  0.4987085328677878
  0.5102402732199565  0.3435366248790714  0.1658626397798955
  0.7151885627615400  0.2087146023736821  0.6083393173524954
  0.8302866964293614  0.5538224563751655  0.9377061477901449
  0.4511262004729915  0.2626223645886867  0.2684750706286678
  0.1794282620583445  0.7291650389704429  0.3977958376013149
  0.5460489607137333  0.8018828364717052  0.0616262726443040
  0.2701977734892225  0.4440856524478676  0.7276729921791301
  0.8522356539304354  0.9378813205699998  0.9400710876773886
  0.0697898614409311  0.8915845697950999  0.2705514270990435
  0.1647150721477644  0.2201911931898621  0.6086209964690070
  0.9260161803938090  0.8152386724900964  0.0642175819374771
  0.8852765067595385  0.0765030485215235  0.7263966169293070
  0.1585572211752719  0.0904312462358448  0.3924267649158963
  0.5515321893579426  0.4238672955015161  0.0589424067790674
  0.5518752957866653  0.1049256029237711  0.3886907502302606
  0.8593478168953226  0.4261904071216875  0.7290602930136316
  0.4630744950782528  0.5621312696858780  0.9398700132807889
  0.1091732669548051  0.5480000476346021  0.6027759023585588
  0.4475441591441012  0.8794460609539243  0.2722368202319245
  0.7841767539114315  0.4192222305192743  0.1779595794703042
  0.5525636055074870  0.3574742070099717  0.5159009046587286
  0.6492558194150604  0.2215493404174751  0.8583624262189815
  0.4352096857203378  0.8054656147016246  0.8229820578026548
  0.3539943128785836  0.5716812842654022  0.4800679639205825
  0.1893426825788396  0.6002925821669365  0.1556850256270437
  0.0300742233291444  0.3201667279958400  0.2750186716714609
  0.6137451597353873  0.6677832603302392  0.5970451821910956
  0.2880388709902633  0.9413108498133482  0.9451687585477089
  0.3823685257604197  0.0880355875769325  0.7405857202118895
  0.7018992116893443  0.6613428947730995  0.3895869757117367
  0.9684976721845260  0.2735141309711508  0.0645086780354589
  0.2264161862897822  0.2333868105031698  0.1440217672533777
  0.7431342829218579  0.9554094627122325  0.4707689121141456
  0.0460308657727495  0.7677787236350113  0.8146561221331723
  0.2673245648523022  0.2139321920432309  0.8682546311870638
  0.9453756602196179  0.7214068878022459  0.5158742339368843
  0.7973124002432854  0.0323795909368130  0.1926495107347463
  0.0959934536117473  0.4457228129455686  0.8673849825139825
  0.5501159816621595  0.6300670611557209  0.1958439308660829
  0.3847403862506553  0.9391917909974694  0.5306509711381935
  0.4421815896418764  0.0443340198896536  0.1346259590293641
  0.6081824487224949  0.5419866465345677  0.7932711758746649
  0.9057112663865468  0.3529743691677751  0.4669482519543067
 
  0.00000000E+00  0.00000000E+00  0.00000000E+00
  0.00000000E+00  0.00000000E+00  0.00000000E+00
  0.00000000E+00  0.00000000E+00  0.00000000E+00
  0.00000000E+00  0.00000000E+00  0.00000000E+00
  0.00000000E+00  0.00000000E+00  0.00000000E+00
  0.00000000E+00  0.00000000E+00  0.00000000E+00
  0.00000000E+00  0.00000000E+00  0.00000000E+00
  0.00000000E+00  0.00000000E+00  0.00000000E+00
  0.00000000E+00  0.00000000E+00  0.00000000E+00
  0.00000000E+00  0.00000000E+00  0.00000000E+00
  0.00000000E+00  0.00000000E+00  0.00000000E+00
  0.00000000E+00  0.00000000E+00  0.00000000E+00
  0.00000000E+00  0.00000000E+00  0.00000000E+00
  0.00000000E+00  0.00000000E+00  0.00000000E+00
  0.00000000E+00  0.00000000E+00  0.00000000E+00
  0.00000000E+00  0.00000000E+00  0.00000000E+00
  0.00000000E+00  0.00000000E+00  0.00000000E+00
  0.00000000E+00  0.00000000E+00  0.00000000E+00
  0.00000000E+00  0.00000000E+00  0.00000000E+00
  0.00000000E+00  0.00000000E+00  0.00000000E+00
  0.00000000E+00  0.00000000E+00  0.00000000E+00
  0.00000000E+00  0.00000000E+00  0.00000000E+00
  0.00000000E+00  0.00000000E+00  0.00000000E+00
  0.00000000E+00  0.00000000E+00  0.00000000E+00
  0.00000000E+00  0.00000000E+00  0.00000000E+00
  0.00000000E+00  0.00000000E+00  0.00000000E+00
  0.00000000E+00  0.00000000E+00  0.00000000E+00
  0.00000000E+00  0.00000000E+00  0.00000000E+00
  0.00000000E+00  0.00000000E+00  0.00000000E+00
  0.00000000E+00  0.00000000E+00  0.00000000E+00
  0.00000000E+00  0.00000000E+00  0.00000000E+00
  0.00000000E+00  0.00000000E+00  0.00000000E+00
  0.00000000E+00  0.00000000E+00  0.00000000E+00
  0.00000000E+00  0.00000000E+00  0.00000000E+00
  0.00000000E+00  0.00000000E+00  0.00000000E+00
  0.00000000E+00  0.00000000E+00  0.00000000E+00
  0.00000000E+00  0.00000000E+00  0.00000000E+00
  0.00000000E+00  0.00000000E+00  0.00000000E+00
  0.00000000E+00  0.00000000E+00  0.00000000E+00
  0.00000000E+00  0.00000000E+00  0.00000000E+00
  0.00000000E+00  0.00000000E+00  0.00000000E+00
  0.00000000E+00  0.00000000E+00  0.00000000E+00
  0.00000000E+00  0.00000000E+00  0.00000000E+00
  0.00000000E+00  0.00000000E+00  0.00000000E+00
  0.00000000E+00  0.00000000E+00  0.00000000E+00
  0.00000000E+00  0.00000000E+00  0.00000000E+00
  0.00000000E+00  0.00000000E+00  0.00000000E+00
  0.00000000E+00  0.00000000E+00  0.00000000E+00
  0.00000000E+00  0.00000000E+00  0.00000000E+00
  0.00000000E+00  0.00000000E+00  0.00000000E+00
  0.00000000E+00  0.00000000E+00  0.00000000E+00
  0.00000000E+00  0.00000000E+00  0.00000000E+00
  0.00000000E+00  0.00000000E+00  0.00000000E+00
  0.00000000E+00  0.00000000E+00  0.00000000E+00
  0.00000000E+00  0.00000000E+00  0.00000000E+00
  0.00000000E+00  0.00000000E+00  0.00000000E+00
  0.00000000E+00  0.00000000E+00  0.00000000E+00
