Ca9 V12 F42                             
   1.00000000000000     
     7.5255352741858550   -0.0320368985315391    0.0056340052099530
    -3.7961129250061898    6.4613319768692170   -0.0520817985861644
    -0.6011219457127595    0.5386384724691526   18.4209071832248306
   Ca   V    F 
     9    12    42
Direct
  0.4838260154401368  0.8372319146447893  0.6640717412535366
  0.8426768020876949  0.4812961511049423  0.3334631724216734
  0.6298554155710860  0.1434231979551583  0.9860360848744918
  0.9812751603784591  0.8129199061878083  0.6623376711407474
  0.8165496727498791  0.9762543854917567  0.3346093474539629
  0.1493445455810090  0.6241286553991685  0.0072013427739819
  0.0018813222930163  0.8497306191282803  0.1602062357499605
  0.8497591159816835  0.9982552821585955  0.8371334553147349
  0.1796762837495152  0.1785695453859049  0.4971483342337066
  0.3240559499347597  0.9941903716936125  0.3264916945597207
  0.9976113887567166  0.3184606409679418  0.6683968690791673
  0.6597215394858296  0.6499382936638938  0.0023353666384907
  0.3276736710488350  0.9925735639786808  0.8229720066266140
  0.9896487601851263  0.3246082538103821  0.1725658592891861
  0.6662604104271210  0.6632679186809654  0.4986710357733202
  0.4939797868224218  0.8239666885385333  0.1680268034502248
  0.1579677479745882  0.6625010030098650  0.4994799539120862
  0.3339552821149709  0.5047951783148861  0.8345392600347736
  0.8296894272489865  0.4950401262448665  0.8299903989423072
  0.6642948837638656  0.1549433297719389  0.4967120902640261
  0.5035367364513164  0.3304187923349247  0.1646936121708009
  0.7294179595461472  0.1629144490546537  0.6072748165325876
  0.8153726952739149  0.5130129727387782  0.9441566806235500
  0.4971556361319784  0.2954903638875876  0.2779752571188041
  0.1682752192625401  0.7264369293097346  0.3888050127357587
  0.5071270314232734  0.8329636097715820  0.0532118805782318
  0.2844441837907823  0.4911917773695649  0.7219015913212132
  0.7691293845004736  0.9427275333721497  0.9507914317637756
  0.0099845399146261  0.8291314132537053  0.2793760320698482
  0.1012443653251083  0.1486322680475354  0.6120669799697396
  0.9604963431179669  0.7683429377627249  0.0470481365116910
  0.8346330769454369  0.0096250828455027  0.7178558915677016
  0.1537887329659000  0.0979499707360816  0.3829939445878097
  0.5417098799042250  0.3461607864428018  0.0506871932628385
  0.6132552282557029  0.1300461674598168  0.3824072686198789
  0.8648776082518808  0.4751118703726576  0.7188290092078162
  0.3711213424741118  0.5442370774689422  0.9490935498427078
  0.1334045555131524  0.6096730065720379  0.6135560311610249
  0.4812874984276405  0.8482825014269295  0.2809852575580223
  0.8210771543017827  0.4666054720004951  0.1949544192490791
  0.5354048645487950  0.3390104839344730  0.5063676962815649
  0.6342392949453313  0.1825557071670332  0.8579844926182076
  0.4671983078477808  0.8219664484927733  0.8020357121350443
  0.3439789421552888  0.5356019114151209  0.4902409338572085
  0.1855377898359549  0.6289188886119845  0.1369830118769499
  0.9879084620881997  0.3104063285928689  0.2887931275655760
  0.6610531690210308  0.7097578594399749  0.6106806915701668
  0.3075386714456982  0.9131041485773395  0.9357394951122302
  0.3139989809047066  0.9864945618325152  0.7064601776672390
  0.7159269214828541  0.6573202015763187  0.3875244319211433
  0.9159554157722454  0.3054603184056575  0.0586325809505226
  0.1862172673997833  0.2165203237130768  0.1512054539914729
  0.8033550622708248  0.9841116083201271  0.4698235304056979
  0.0151665824771641  0.8078681677459514  0.7998013429857167
  0.2143335732335316  0.1848260552130512  0.8442949128409580
  0.9859943082893992  0.7993715742790570  0.5266236059132510
  0.8070647987311474  0.0079408178562232  0.1975386109751085
  0.0218682996638364  0.3793335807721547  0.8539942357376233
  0.6263263614009276  0.6460034715501664  0.1500220485176484
  0.3926493993607494  0.9297566301193072  0.5419889365546808
  0.3670658169234002  0.0105503947537073  0.1673389181985101
  0.6451708907298581  0.6223315592876588  0.8276600749452854
  0.9340044660977895  0.3887389499832494  0.4546802571386053
 
  0.00000000E+00  0.00000000E+00  0.00000000E+00
  0.00000000E+00  0.00000000E+00  0.00000000E+00
  0.00000000E+00  0.00000000E+00  0.00000000E+00
  0.00000000E+00  0.00000000E+00  0.00000000E+00
  0.00000000E+00  0.00000000E+00  0.00000000E+00
  0.00000000E+00  0.00000000E+00  0.00000000E+00
  0.00000000E+00  0.00000000E+00  0.00000000E+00
  0.00000000E+00  0.00000000E+00  0.00000000E+00
  0.00000000E+00  0.00000000E+00  0.00000000E+00
  0.00000000E+00  0.00000000E+00  0.00000000E+00
  0.00000000E+00  0.00000000E+00  0.00000000E+00
  0.00000000E+00  0.00000000E+00  0.00000000E+00
  0.00000000E+00  0.00000000E+00  0.00000000E+00
  0.00000000E+00  0.00000000E+00  0.00000000E+00
  0.00000000E+00  0.00000000E+00  0.00000000E+00
  0.00000000E+00  0.00000000E+00  0.00000000E+00
  0.00000000E+00  0.00000000E+00  0.00000000E+00
  0.00000000E+00  0.00000000E+00  0.00000000E+00
  0.00000000E+00  0.00000000E+00  0.00000000E+00
  0.00000000E+00  0.00000000E+00  0.00000000E+00
  0.00000000E+00  0.00000000E+00  0.00000000E+00
  0.00000000E+00  0.00000000E+00  0.00000000E+00
  0.00000000E+00  0.00000000E+00  0.00000000E+00
  0.00000000E+00  0.00000000E+00  0.00000000E+00
  0.00000000E+00  0.00000000E+00  0.00000000E+00
  0.00000000E+00  0.00000000E+00  0.00000000E+00
  0.00000000E+00  0.00000000E+00  0.00000000E+00
  0.00000000E+00  0.00000000E+00  0.00000000E+00
  0.00000000E+00  0.00000000E+00  0.00000000E+00
  0.00000000E+00  0.00000000E+00  0.00000000E+00
  0.00000000E+00  0.00000000E+00  0.00000000E+00
  0.00000000E+00  0.00000000E+00  0.00000000E+00
  0.00000000E+00  0.00000000E+00  0.00000000E+00
  0.00000000E+00  0.00000000E+00  0.00000000E+00
  0.00000000E+00  0.00000000E+00  0.00000000E+00
  0.00000000E+00  0.00000000E+00  0.00000000E+00
  0.00000000E+00  0.00000000E+00  0.00000000E+00
  0.00000000E+00  0.00000000E+00  0.00000000E+00
  0.00000000E+00  0.00000000E+00  0.00000000E+00
  0.00000000E+00  0.00000000E+00  0.00000000E+00
  0.00000000E+00  0.00000000E+00  0.00000000E+00
  0.00000000E+00  0.00000000E+00  0.00000000E+00
  0.00000000E+00  0.00000000E+00  0.00000000E+00
  0.00000000E+00  0.00000000E+00  0.00000000E+00
  0.00000000E+00  0.00000000E+00  0.00000000E+00
  0.00000000E+00  0.00000000E+00  0.00000000E+00
  0.00000000E+00  0.00000000E+00  0.00000000E+00
  0.00000000E+00  0.00000000E+00  0.00000000E+00
  0.00000000E+00  0.00000000E+00  0.00000000E+00
  0.00000000E+00  0.00000000E+00  0.00000000E+00
  0.00000000E+00  0.00000000E+00  0.00000000E+00
  0.00000000E+00  0.00000000E+00  0.00000000E+00
  0.00000000E+00  0.00000000E+00  0.00000000E+00
  0.00000000E+00  0.00000000E+00  0.00000000E+00
  0.00000000E+00  0.00000000E+00  0.00000000E+00
  0.00000000E+00  0.00000000E+00  0.00000000E+00
  0.00000000E+00  0.00000000E+00  0.00000000E+00
  0.00000000E+00  0.00000000E+00  0.00000000E+00
  0.00000000E+00  0.00000000E+00  0.00000000E+00
  0.00000000E+00  0.00000000E+00  0.00000000E+00
  0.00000000E+00  0.00000000E+00  0.00000000E+00
  0.00000000E+00  0.00000000E+00  0.00000000E+00
  0.00000000E+00  0.00000000E+00  0.00000000E+00
