Ca1 Cr12 F42                            
   1.00000000000000     
     7.2404339999999996   -0.0258080000000000   -0.0108030000000000
    -3.5929050000000000    6.2664119999999999    0.0302180000000000
     0.0524200000000000    0.1406960000000000   17.2597549999999984
   Ca   Cr   F 
     1    12    42
Direct
  0.8296064145764867  0.3524930748708974  0.3330386345473074
  0.2626215725110102 -0.0142419049966474  0.3277918581638267
  0.7278531036394725  0.7250799807972905  0.9978076754256611
  0.9973323345965667  0.2777295466308169  0.6716398006707996
  0.3596704909244234  1.0011007451857821  0.8352619802806684
  0.6314128077500628  0.6329853430053187  0.5006782854527466
  1.0203396866893302  0.3672419811494141  0.1577505723293125
  0.6244308152657868  0.1284304244743676  0.5089977606010855
  0.5085840411858151  0.3613502112060393  0.1637642729386578
  0.8596404700444737  0.5020115511783910  0.8340674417083120
  0.3583946400446449  0.4999355556919549  0.8356326689849977
  0.1325602077738934  0.6380796786398173  0.5028758629129156
  0.5173895996036121  0.8656069598704995  0.1660647265802714
  0.5943464109575576  0.8453893443902927  0.0614052999602326
  0.2560573102755553  0.4311785119196446  0.7307814594511484
  0.1424336611024416  0.7222498698069284  0.3927797528878448
  0.4388447028993188  0.2559025204090529  0.2710337930155927
  0.8346192889290780  0.5743483653556621  0.9381032821149839
  0.7352177008018469  0.1525746597972496  0.6101632850481473
  0.8855914632655443  0.0645344040794129  0.7367213593260800
  0.1226695558404569  0.0927289901371372  0.3776421985570617
  0.9459789738445975  0.8240122010449256  0.0593154156447477
  0.1162180115161924  0.1836742150032654  0.6074848737324764
  0.0668894073743482  0.8487263423039435  0.2567962903551143
  0.8217795368001246  0.9366630331940056  0.9321843851419119
  0.1045835466580053  0.5377255080058561  0.6057091111650801
  0.4551124323175210  0.9017967348769258  0.2733966793947590
  0.4601999116190301  0.5747353788435072  0.9397531913166215
  0.8797564824493838  0.4246706063864450  0.7300034992810600
  0.5212444748491167  0.1167108375820967  0.4016522059612876
  0.5900918606961405  0.4628423509477247  0.0612299561423308
  0.3378413250743132  0.5522207195312349  0.4757725434623992
  0.2265850806488861  0.6603812912633847  0.1391642061108128
  0.4445107894000916  0.7947693343562117  0.8138713772508731
  0.6502817718187127  0.2084436207121269  0.8573440531815071
  0.5499770265123783  0.3425658271175093  0.5318962362288393
  0.7986288543662681  0.4344841064025751  0.1958313219335282
  0.6845441144479886  0.5683206384312073  0.4003321207526139
  0.9245045205017767  0.3223492382424435  0.0619238650959214
  0.3980088214919841  0.0814967612514044  0.7369205091880727
  0.3161579145321362  0.9210983267362677  0.9336910425333134
  0.5907673862561627  0.6877578000569626  0.5971054303100348
  0.1063056974312894  0.4128102365244744  0.2640635762076721
  0.9259385584732989  0.7246550380781921  0.5228692925585173
  0.8084533612427992  0.0785990949067118  0.1929873069298224
  0.2727016896865228  0.2069329162715236  0.8572912004862140
  0.0678664807761193  0.7940723926970022  0.8119493196285674
  0.7048602475876945  0.9260255749488732  0.4723777087496346
  0.2205563703145287  0.2743217679152799  0.1379369775252005
  0.6365690269312358  0.5574896566074667  0.8018865436578481
  0.9042442300551066  0.3541932563855650  0.4663144501076518
  0.4582473008007149  0.0857085416814061  0.1327323502969386
  0.3441776327925380  0.9132081686870767  0.5382137447125478
  0.5675295910215014  0.6382192406792064  0.1988862625604867
  0.0798182456064167  0.4437616548740799  0.8676951432624656
 
             NaN             NaN             NaN
             NaN             NaN             NaN
             NaN             NaN             NaN
             NaN             NaN             NaN
             NaN             NaN             NaN
             NaN             NaN             NaN
             NaN             NaN             NaN
             NaN             NaN             NaN
             NaN             NaN             NaN
             NaN             NaN             NaN
             NaN             NaN             NaN
             NaN             NaN             NaN
             NaN             NaN             NaN
             NaN             NaN             NaN
             NaN             NaN             NaN
             NaN             NaN             NaN
             NaN             NaN             NaN
             NaN             NaN             NaN
             NaN             NaN             NaN
             NaN             NaN             NaN
             NaN             NaN             NaN
             NaN             NaN             NaN
             NaN             NaN             NaN
             NaN             NaN             NaN
             NaN             NaN             NaN
             NaN             NaN             NaN
             NaN             NaN             NaN
             NaN             NaN             NaN
             NaN             NaN             NaN
             NaN             NaN             NaN
             NaN             NaN             NaN
             NaN             NaN             NaN
             NaN             NaN             NaN
             NaN             NaN             NaN
             NaN             NaN             NaN
             NaN             NaN             NaN
             NaN             NaN             NaN
             NaN             NaN             NaN
             NaN             NaN             NaN
             NaN             NaN             NaN
             NaN             NaN             NaN
             NaN             NaN             NaN
             NaN             NaN             NaN
             NaN             NaN             NaN
             NaN             NaN             NaN
             NaN             NaN             NaN
             NaN             NaN             NaN
             NaN             NaN             NaN
             NaN             NaN             NaN
             NaN             NaN             NaN
             NaN             NaN             NaN
             NaN             NaN             NaN
             NaN             NaN             NaN
             NaN             NaN             NaN
             NaN             NaN             NaN
