Ca1 Cr12 F42
1.0
7.240434 -0.025808 -0.010803
-3.592905 6.266412 0.030218
0.052420 0.140696 17.259755
Ca Cr F
1 12 42
direct
0.848401 0.338325 0.326843 Ca
0.296422 0.003577 0.333481 Cr
0.714940 0.715404 0.997321 Cr
0.998489 0.282543 0.669184 Cr
0.359049 0.997827 0.833648 Cr
0.644444 0.652550 0.505687 Cr
0.995838 0.349336 0.160365 Cr
0.646225 0.152336 0.503809 Cr
0.492074 0.349844 0.161252 Cr
0.858527 0.499831 0.833919 Cr
0.356346 0.495768 0.833202 Cr
0.147509 0.652244 0.505202 Cr
0.495775 0.850617 0.162762 Cr
0.569491 0.829618 0.058178 F
0.256921 0.419790 0.729060 F
0.170648 0.742120 0.396662 F
0.446234 0.263114 0.270490 F
0.827039 0.567015 0.938422 F
0.739686 0.179793 0.608015 F
0.878056 0.063715 0.731879 F
0.183530 0.120040 0.395583 F
0.921816 0.803378 0.063913 F
0.110145 0.184686 0.603306 F
0.053042 0.868036 0.274571 F
0.823561 0.934266 0.934530 F
0.121610 0.551587 0.608115 F
0.434957 0.879251 0.269731 F
0.455050 0.576217 0.936381 F
0.885674 0.430819 0.729825 F
0.568490 0.131557 0.393557 F
0.557834 0.445461 0.057569 F
0.354253 0.570477 0.480411 F
0.203511 0.643724 0.143667 F
0.438978 0.788262 0.809204 F
0.650927 0.204470 0.854676 F
0.555172 0.356274 0.520198 F
0.786977 0.438585 0.184959 F
0.691943 0.633127 0.399283 F
0.923237 0.312737 0.061732 F
0.395041 0.078988 0.735342 F
0.320951 0.916440 0.931924 F
0.603058 0.684297 0.604198 F
0.048116 0.377676 0.268386 F
0.938061 0.734783 0.524847 F
0.786562 0.056085 0.186512 F
0.275227 0.205335 0.857549 F
0.065336 0.793213 0.813044 F
0.735614 0.949351 0.481906 F
0.198249 0.256097 0.145789 F
0.636066 0.555109 0.800898 F
0.922247 0.378971 0.466580 F
0.436791 0.071784 0.130994 F
0.366195 0.931904 0.534916 F
0.551694 0.627303 0.196503 F
0.078383 0.440030 0.866271 F
