Vandium                                 
   1.00000000000000     
     5.9598385540046968    0.0000000233015595    0.0000000037400976
     0.0000000116730834    2.9799033086277618    0.0000000046904245
     0.0000000021773018    0.0000000048491948    2.9798233881232918
   V 
     4
Direct
  0.0000000938162032  0.0000000010635318 -0.0000000003635442
  0.2499992212260785  0.4999999991250685  0.4999999932484553
  0.5000000377290980  0.0000000015314328  0.0000000015434551
  0.7500006472286203  0.4999999982799669  0.5000000055716338
 
  0.00000000E+00  0.00000000E+00  0.00000000E+00
  0.00000000E+00  0.00000000E+00  0.00000000E+00
  0.00000000E+00  0.00000000E+00  0.00000000E+00
  0.00000000E+00  0.00000000E+00  0.00000000E+00
