Ca1 Cr12 F42                            
   1.00000000000000     
     7.2381050000000000   -0.0262930000000000   -0.0125830000000000
    -3.5921330000000000    6.2713140000000003    0.0397720000000000
     0.0482870000000000    0.1643320000000000   17.2412950000000009
   Ca   Cr   F 
     1    12    42
Direct
  0.8432417074050015  0.2448812947200459  0.3333672297038532
  0.2592264246322773 -0.0100744498013214  0.3273492969343922
  0.7288022159883810  0.7253494655009155  0.9979260697101888
  0.9972606614853362  0.2779940793699974  0.6717313532465650
  0.3597562948151340  1.0010309476945634  0.8353692442643889
  0.6292648604687713  0.6353554867649711  0.5014872489408445
  1.0228259660431693  0.3730815433450492  0.1564756925306637
  0.6216801681964623  0.1323804960181237  0.5095766655322723
  0.5109559070963475  0.3625857719619929  0.1644305770372124
  0.8597424155407337  0.5019747287375911  0.8341507309216721
  0.3585207492015338  0.5000247150869358  0.8358052432407955
  0.1302751245468678  0.6402360153095276  0.5021818401762773
  0.5177212711919391  0.8664093734536489  0.1660737433385231
  0.5973324332615141  0.8478419893784690  0.0617169518804555
  0.2561316078968746  0.4313375861067565  0.7307703082454433
  0.1468024760398242  0.7322889102908283  0.3944285960478086
  0.4325610869447533  0.2561797913903365  0.2701943535485572
  0.8349551175553491  0.5744875583288376  0.9382298536556468
  0.7346921164255465  0.1524037902568387  0.6102842539721557
  0.8861297403677209  0.0649964658250078  0.7371614891711626
  0.1009735634018559  0.0967198929042272  0.3716876579247671
  0.9477514133603955  0.8251190527972679  0.0589618953930422
  0.1158763455881424  0.1833184751970610  0.6076449855647736
  0.0700926386429693  0.8536024428872800  0.2544475714700650
  0.8212676004576633  0.9364214535397212  0.9319094808984050
  0.1024760502192625  0.5365148533316516  0.6052221549763027
  0.4623268916345235  0.9096935303542955  0.2750829187513951
  0.4603904769231149  0.5748307685689814  0.9400084454203025
  0.8796005820157129  0.4245869750366253  0.7300515739291088
  0.5197457779591830  0.1223656047777383  0.4025819441777205
  0.5924776068748629  0.4644204204030371  0.0613278609544372
  0.3360036945608900  0.5530298912497926  0.4769061505084634
  0.2288831878044172  0.6650528006493666  0.1366290914410903
  0.4445067414021225  0.7947530445656985  0.8138765332326428
  0.6502695147938515  0.2083840589794501  0.8574529743150697
  0.5485658235257570  0.3458029995945073  0.5333356710752092
  0.7992659494214823  0.4320851157563146  0.1954866575995956
  0.6750319428142187  0.5794838883520721  0.4033860172905833
  0.9227860328065255  0.3214325354241229  0.0612419157808065
  0.3981396986507367  0.0817083916882468  0.7368261291459688
  0.3161377599465733  0.9207233436518272  0.9338215332028306
  0.5904433075606255  0.6907164557279718  0.5980128678997171
  0.1186409422144699  0.4256767584828667  0.2618296367142284
  0.9230006142562998  0.7256726647012027  0.5234058504219742
  0.8108932720460179  0.0817988568808693  0.1962929005023495
  0.2729730871871490  0.2069531202502848  0.8573864404934998
  0.0680491773234112  0.7940492255131384  0.8119491836824423
  0.7031705575634194  0.9302225204918483  0.4716920331668609
  0.2223577029516149  0.2785251645265246  0.1375418842342725
  0.6367233257229625  0.5577720303878866  0.8019267806617864
  0.9023674081533622  0.3551248894813475  0.4655371329882487
  0.4599172489904452  0.0872104155197946  0.1326561147541217
  0.3427560475865651  0.9137509346528676  0.5390285558290312
  0.5688766923662645  0.6402708371790998  0.1987761689306561
  0.0799299047923866  0.4436064283419557  0.8679478079046788
 
             NaN             NaN             NaN
             NaN             NaN             NaN
             NaN             NaN             NaN
             NaN             NaN             NaN
             NaN             NaN             NaN
             NaN             NaN             NaN
             NaN             NaN             NaN
             NaN             NaN             NaN
             NaN             NaN             NaN
             NaN             NaN             NaN
             NaN             NaN             NaN
             NaN             NaN             NaN
             NaN             NaN             NaN
             NaN             NaN             NaN
             NaN             NaN             NaN
             NaN             NaN             NaN
             NaN             NaN             NaN
             NaN             NaN             NaN
             NaN             NaN             NaN
             NaN             NaN             NaN
             NaN             NaN             NaN
             NaN             NaN             NaN
             NaN             NaN             NaN
             NaN             NaN             NaN
             NaN             NaN             NaN
             NaN             NaN             NaN
             NaN             NaN             NaN
             NaN             NaN             NaN
             NaN             NaN             NaN
             NaN             NaN             NaN
             NaN             NaN             NaN
             NaN             NaN             NaN
             NaN             NaN             NaN
             NaN             NaN             NaN
             NaN             NaN             NaN
             NaN             NaN             NaN
             NaN             NaN             NaN
             NaN             NaN             NaN
             NaN             NaN             NaN
             NaN             NaN             NaN
             NaN             NaN             NaN
             NaN             NaN             NaN
             NaN             NaN             NaN
             NaN             NaN             NaN
             NaN             NaN             NaN
             NaN             NaN             NaN
             NaN             NaN             NaN
             NaN             NaN             NaN
             NaN             NaN             NaN
             NaN             NaN             NaN
             NaN             NaN             NaN
             NaN             NaN             NaN
             NaN             NaN             NaN
             NaN             NaN             NaN
             NaN             NaN             NaN
