Ca1 Cr12 F42
1.0
7.238105 -0.026293 -0.012583
-3.592133 6.271314 0.039772
0.048287 0.164332 17.241295
Ca Cr F
1 12 42
direct
0.849081 0.255589 0.328806 Ca
0.297153 0.002921 0.333512 Cr
0.714413 0.714806 0.997361 Cr
0.998405 0.283309 0.669246 Cr
0.359091 0.997886 0.833651 Cr
0.644911 0.652845 0.504887 Cr
0.995347 0.348982 0.161393 Cr
0.646247 0.152985 0.504041 Cr
0.493232 0.349864 0.162136 Cr
0.858536 0.500082 0.833996 Cr
0.356203 0.495687 0.833208 Cr
0.147373 0.652000 0.504523 Cr
0.494977 0.849515 0.162690 Cr
0.567676 0.828286 0.058010 F
0.257126 0.420397 0.728949 F
0.171106 0.742150 0.396377 F
0.444757 0.262393 0.270931 F
0.826962 0.566846 0.938596 F
0.738767 0.181048 0.608478 F
0.877961 0.065022 0.732415 F
0.179808 0.117807 0.395604 F
0.922105 0.804628 0.063660 F
0.109064 0.184195 0.603515 F
0.054396 0.875716 0.273911 F
0.821774 0.933108 0.934090 F
0.121969 0.551510 0.607776 F
0.438315 0.879899 0.270350 F
0.454336 0.574684 0.936543 F
0.886266 0.432166 0.729813 F
0.568758 0.126403 0.393796 F
0.559185 0.445947 0.058161 F
0.354989 0.571362 0.479803 F
0.201954 0.643874 0.145373 F
0.438861 0.788288 0.809280 F
0.650849 0.204675 0.854710 F
0.553938 0.356210 0.518182 F
0.787091 0.437172 0.185269 F
0.694654 0.643202 0.398027 F
0.924440 0.314115 0.062523 F
0.395326 0.079508 0.735220 F
0.320776 0.915973 0.932020 F
0.602783 0.681658 0.603695 F
0.044453 0.368108 0.269589 F
0.937828 0.733956 0.524326 F
0.786550 0.053502 0.186663 F
0.275131 0.205169 0.857477 F
0.065432 0.793414 0.813060 F
0.738235 0.951543 0.482503 F
0.199637 0.258209 0.146254 F
0.636129 0.555508 0.800868 F
0.923146 0.377577 0.467277 F
0.436916 0.071777 0.131509 F
0.365992 0.931397 0.534719 F
0.551994 0.627307 0.196803 F
0.078186 0.439808 0.866385 F
