V8 F40                                  
   1.00000000000000     
     5.3850747836057753    0.0000018993471927    0.0000018250393475
     0.0000057990069508   16.1175348076607250    0.0000026630074768
     0.0000025471631850    0.0000012154560340    7.4434855285551524
   V    F 
     8    40
Direct
  0.2500214418895793  0.3807019075984030  0.6071844046904469
  0.2500213859619022  0.1192980938641039  0.1071850867756384
  0.7500217371835741  0.6192981149549311  0.3928154861512722
  0.7500217685007207  0.8807018910636554  0.8928154097576607
  0.7500072950621088  0.3572949091322553  0.9572835524247563
  0.7500078600715770  0.1427051164359227  0.4572837682625225
  0.2500071105503148  0.6427050908779589  0.0427162957543254
  0.2500070430492395  0.8572948722831543  0.5427163051345530
  0.2500015429528565  0.4652064178693647  0.7559246944343533
  0.2500035268858716  0.0347942045359737  0.2559266184001805
  0.7500017466624425  0.5347936310964783  0.2440750767880942
  0.7500014183086352  0.9652064953487169  0.7440750210382745
  0.2499890878152010  0.2798783854420725  0.5187192184706101
  0.2499878335756143  0.2201210977797058  0.0187182391660524
  0.7499888280018676  0.7201216560622306  0.4812805599840214
  0.7499887688240842  0.7798781714429989  0.9812800356380139
  0.4882230773375036  0.4169155823343065  0.4726530671380810
  0.0118016089968626  0.0830781098155648  0.9726858153347736
  0.9882238578855543  0.5830844795347861  0.5273464435518228
  0.5118023876236876  0.9169210960520867  0.0273161935691287
  0.5118025108653140  0.5830788607527063  0.5273163928946899
  0.9882237963807424  0.9169151230191173  0.0273466596965047
  0.0118019967732338  0.4169211309268102  0.4726837750805556
  0.4882230515454146  0.0830840604590935  0.9726544654548757
  0.4993412692733949  0.3343882127326359  0.7711065996763432
  0.0006962935284447  0.1656041591984225  0.2711333889241883
  0.9993404919529634  0.6656118513061628  0.2288927040646284
  0.5006960606399918  0.8343961595105294  0.7288668158399678
  0.5006957809603438  0.6656039627664625  0.2288670364889084
  0.9993405731687350  0.8343881911465750  0.7288926018873050
  0.0006965417409626  0.3343961165327102  0.7711333380150758
  0.4993408766953349  0.1656123488741261  0.2711066216209775
  0.7499621355386483  0.4575548527120930  0.8653167412047952
  0.7499626583454363  0.0424452315129797  0.3653166638819060
  0.2499623806843763  0.5424451079234172  0.1346831491795480
  0.2499617317558027  0.9575548595829804  0.6346826846936318
  0.7499888627841016  0.2489479895451296  0.9770162105597087
  0.7499891556443391  0.2510520876330586  0.4770164993754156
  0.2499889414632253  0.7510520370792722  0.0229836361270264
  0.2499894032990277  0.7489479246254502  0.5229831790829895
  0.5122056634753795  0.3746004435885146  0.1084751464976467
  0.9877602622807513  0.1253924624828664  0.6085162648401125
  0.0122066316952770  0.6253997283845030  0.8915238242572701
  0.4877603000650045  0.8746075958175411  0.3914847558414389
  0.4877607106089233  0.6253924480038294  0.8914848591548031
  0.0122068149736898  0.8746005124013524  0.3915237555554789
  0.9877596751504446  0.3746074527062577  0.1085157271147956
  0.5122061015714992  0.1253997652507676  0.6084752105248382
 
  0.00000000E+00  0.00000000E+00  0.00000000E+00
  0.00000000E+00  0.00000000E+00  0.00000000E+00
  0.00000000E+00  0.00000000E+00  0.00000000E+00
  0.00000000E+00  0.00000000E+00  0.00000000E+00
  0.00000000E+00  0.00000000E+00  0.00000000E+00
  0.00000000E+00  0.00000000E+00  0.00000000E+00
  0.00000000E+00  0.00000000E+00  0.00000000E+00
  0.00000000E+00  0.00000000E+00  0.00000000E+00
  0.00000000E+00  0.00000000E+00  0.00000000E+00
  0.00000000E+00  0.00000000E+00  0.00000000E+00
  0.00000000E+00  0.00000000E+00  0.00000000E+00
  0.00000000E+00  0.00000000E+00  0.00000000E+00
  0.00000000E+00  0.00000000E+00  0.00000000E+00
  0.00000000E+00  0.00000000E+00  0.00000000E+00
  0.00000000E+00  0.00000000E+00  0.00000000E+00
  0.00000000E+00  0.00000000E+00  0.00000000E+00
  0.00000000E+00  0.00000000E+00  0.00000000E+00
  0.00000000E+00  0.00000000E+00  0.00000000E+00
  0.00000000E+00  0.00000000E+00  0.00000000E+00
  0.00000000E+00  0.00000000E+00  0.00000000E+00
  0.00000000E+00  0.00000000E+00  0.00000000E+00
  0.00000000E+00  0.00000000E+00  0.00000000E+00
  0.00000000E+00  0.00000000E+00  0.00000000E+00
  0.00000000E+00  0.00000000E+00  0.00000000E+00
  0.00000000E+00  0.00000000E+00  0.00000000E+00
  0.00000000E+00  0.00000000E+00  0.00000000E+00
  0.00000000E+00  0.00000000E+00  0.00000000E+00
  0.00000000E+00  0.00000000E+00  0.00000000E+00
  0.00000000E+00  0.00000000E+00  0.00000000E+00
  0.00000000E+00  0.00000000E+00  0.00000000E+00
  0.00000000E+00  0.00000000E+00  0.00000000E+00
  0.00000000E+00  0.00000000E+00  0.00000000E+00
  0.00000000E+00  0.00000000E+00  0.00000000E+00
  0.00000000E+00  0.00000000E+00  0.00000000E+00
  0.00000000E+00  0.00000000E+00  0.00000000E+00
  0.00000000E+00  0.00000000E+00  0.00000000E+00
  0.00000000E+00  0.00000000E+00  0.00000000E+00
  0.00000000E+00  0.00000000E+00  0.00000000E+00
  0.00000000E+00  0.00000000E+00  0.00000000E+00
  0.00000000E+00  0.00000000E+00  0.00000000E+00
  0.00000000E+00  0.00000000E+00  0.00000000E+00
  0.00000000E+00  0.00000000E+00  0.00000000E+00
  0.00000000E+00  0.00000000E+00  0.00000000E+00
  0.00000000E+00  0.00000000E+00  0.00000000E+00
  0.00000000E+00  0.00000000E+00  0.00000000E+00
  0.00000000E+00  0.00000000E+00  0.00000000E+00
  0.00000000E+00  0.00000000E+00  0.00000000E+00
  0.00000000E+00  0.00000000E+00  0.00000000E+00
