Ca2 Ni4 F12                             
   1.00000000000000     
     5.5901022918780354    0.0000029135482021   -0.0009240406127381
     0.0000032109631792    7.6005137829016594    0.0000008626316465
     0.0009743622536412    0.0000007300429241    5.2560601054151013
   Ca   Ni   F 
     2     4    12
Direct
  0.0833721100647402  0.2499993711630203  0.9746833710392645
  0.4166537248813790  0.7499998320010596  0.4748143254884833
  0.9845053885237739  0.5018096136996198  0.4968633047522486
  0.5154453728051123  0.0018094867268561  0.9969117728943425
  0.9845043936590315  0.9981911058427001  0.4968629519476613
  0.5154456382976724  0.4981907187027353  0.9969110405185730
  0.9730329856107147  0.2500006148885814  0.3873304737939556
  0.4743954679153375  0.2500004035204320  0.0949951574492985
  0.0255715157480868  0.7500007105200696  0.5948730059060571
  0.5269986078642883  0.7500002237342737  0.8875211686226638
  0.6881656462574094  0.5583883903914493  0.3142896537543772
  0.2107330352389892  0.9557084903930613  0.2021112597734466
  0.2892866272867612  0.0442327020705644  0.7021443158162606
  0.8118522142489838  0.4416097335058469  0.8142721407581648
  0.2892861165746635  0.4557659146927254  0.7021434811388452
  0.8118530296442530  0.0583891517370569  0.8142725845719567
  0.6881662139801887  0.9416104588886890  0.3142897406682247
  0.2107319113986075  0.5442930775212588  0.2021102511061668
 
  0.00000000E+00  0.00000000E+00  0.00000000E+00
  0.00000000E+00  0.00000000E+00  0.00000000E+00
  0.00000000E+00  0.00000000E+00  0.00000000E+00
  0.00000000E+00  0.00000000E+00  0.00000000E+00
  0.00000000E+00  0.00000000E+00  0.00000000E+00
  0.00000000E+00  0.00000000E+00  0.00000000E+00
  0.00000000E+00  0.00000000E+00  0.00000000E+00
  0.00000000E+00  0.00000000E+00  0.00000000E+00
  0.00000000E+00  0.00000000E+00  0.00000000E+00
  0.00000000E+00  0.00000000E+00  0.00000000E+00
  0.00000000E+00  0.00000000E+00  0.00000000E+00
  0.00000000E+00  0.00000000E+00  0.00000000E+00
  0.00000000E+00  0.00000000E+00  0.00000000E+00
  0.00000000E+00  0.00000000E+00  0.00000000E+00
  0.00000000E+00  0.00000000E+00  0.00000000E+00
  0.00000000E+00  0.00000000E+00  0.00000000E+00
  0.00000000E+00  0.00000000E+00  0.00000000E+00
  0.00000000E+00  0.00000000E+00  0.00000000E+00
