Co4 F14                                 
   1.00000000000000     
    -7.1753084325115877   -0.0832045361691105    0.0147237057348018
    -3.6267655298340111   -5.3449083074522754   -3.0232018584344051
    -3.6331217291594129   -5.3469289417667172    3.0253881349893468
   F    Co
    14     4
Direct
  0.7487537457644962  0.3939260728610989  0.1064297232088549
  0.2498788896297270  0.6063157484482744  0.8931433370317734
  0.9707038993648851  0.8043644128953105  0.2573183803468098
  0.0299238575362963  0.1944145093659131  0.7435095414331627
  0.4669741534957552  0.7588440647022168  0.3052166084471466
  0.5347077107114941  0.2417987569419608  0.6936078129103223
  0.0563972348146677  0.5875836641150158  0.6738744796956198
  0.3089965056187083  0.4193049980549688  0.3440887521198874
  0.5556849845962262  0.1741896559992639  0.0878510679161977
  0.8094595137837359  0.8422785499340506  0.9218721058911612
  0.9440472646777636  0.4098275955946491  0.3281480121102618
  0.6905631716098739  0.5819147138161114  0.6551135169592115
  0.4441338169763895  0.8282373927933193  0.9099392522893339
  0.1910050136760049  0.1563945136995315  0.0790208162525374
  0.5004996255094980  0.0005646505685490  0.9994593294627592
  0.9999723926286350  0.4994664426950521  0.5008043042177803
  0.9994144566168330  0.4985930135482946  0.0016468043648317
  0.4988837629890028  0.5019812439664335  0.9989561553423627
 
  0.00000000E+00  0.00000000E+00  0.00000000E+00
  0.00000000E+00  0.00000000E+00  0.00000000E+00
  0.00000000E+00  0.00000000E+00  0.00000000E+00
  0.00000000E+00  0.00000000E+00  0.00000000E+00
  0.00000000E+00  0.00000000E+00  0.00000000E+00
  0.00000000E+00  0.00000000E+00  0.00000000E+00
  0.00000000E+00  0.00000000E+00  0.00000000E+00
  0.00000000E+00  0.00000000E+00  0.00000000E+00
  0.00000000E+00  0.00000000E+00  0.00000000E+00
  0.00000000E+00  0.00000000E+00  0.00000000E+00
  0.00000000E+00  0.00000000E+00  0.00000000E+00
  0.00000000E+00  0.00000000E+00  0.00000000E+00
  0.00000000E+00  0.00000000E+00  0.00000000E+00
  0.00000000E+00  0.00000000E+00  0.00000000E+00
  0.00000000E+00  0.00000000E+00  0.00000000E+00
  0.00000000E+00  0.00000000E+00  0.00000000E+00
  0.00000000E+00  0.00000000E+00  0.00000000E+00
  0.00000000E+00  0.00000000E+00  0.00000000E+00
