Ca9 Ni12 F42                            
   1.00000000000000     
     7.1746611494252441    0.0119330339972990   -0.0013111520913177
    -3.6007605500603002    6.2083186106644401    0.0041968199241513
     0.0043388522073875    0.0105868594838934   18.1144264981773837
   Ca   Ni   F 
     9    12    42
Direct
  0.4887748304982509  0.8288833872517003  0.6420320519622251
  0.1706274316553404  0.6611555441995804  0.9756872008600439
  0.3396557254923636  0.5095945782764630  0.3088151851321399
  0.9958364776707214  0.8290867330488894  0.6823338650797268
  0.8313124804535974  0.0028511337620003  0.3491269185930008
  0.1724135771065889  0.1691970796171205  0.0160817755775398
  0.9908842649379821  0.8017332015103236  0.1745073866521238
  0.8124812685874332  0.0092625298217968  0.8413138143067656
  0.1983457879104407  0.1889146455313622  0.5071839450913274
  0.3372814452427022  0.0035464129420077  0.3342504520550165
  0.9942708706312970  0.3337771757780530  0.6678089076859735
  0.6665198778592156  0.6629471525703110  0.0017220414620596
  0.3242274762464916  0.0094507086504763  0.8279084036798636
  0.9909653454119720  0.3146118733011747  0.1614024589168181
  0.6854097588678556  0.6752623482467470  0.4954151283348267
  0.4964745868184011  0.8211609193995528  0.1617995023041701
  0.1791306784283861  0.6743161016255215  0.4944113273507895
  0.3261172207168457  0.5055833712998066  0.8282934695357014
  0.8180406166965355  0.5045167965198800  0.8300792396447036
  0.6873518009053328  0.1815900161922173  0.4964443089267974
  0.4966906711053909  0.3132114450876387  0.1633246445264902
  0.7444409796242937  0.1788938684197348  0.6029487551983550
  0.8205846755096502  0.5673283078873794  0.9363984864440980
  0.4341790788381488  0.2541132711007847  0.2695356849260548
  0.2573697329563132  0.7271179989783647  0.3872336054034520
  0.4693895174665528  0.7417465746390519  0.0547661865389983
  0.2710337301888046  0.5300363061328426  0.7209608726401413
  0.8329288717573249  0.9601160402355902  0.9591513350174523
  0.0397133254771660  0.8729284798245374  0.2920886851921125
  0.1254572903717914  0.1675968719249354  0.6248357285753698
  0.9781805445834806  0.7942853478931795  0.0524162656446663
  0.8155511023567499  0.0223529826605855  0.7189987509496660
  0.2061477754558894  0.1839386992343393  0.3850760489605136
  0.5267099871481591  0.3881814817258302  0.0565839534163430
  0.6116253247300207  0.1374557795669773  0.3896613891723391
  0.8608451130967225  0.4741083857186865  0.7230970272919350
  0.3753291550397435  0.4864381874003314  0.9410450564357191
  0.1090660674576824  0.6248270017723598  0.6070994027537893
  0.5148207236363334  0.8895009429519902  0.2741004167578396
  0.8017052004404377  0.4310627861800427  0.1715649895023788
  0.5695740963731808  0.3693195400237599  0.5051074736420063
  0.6304352061179515  0.1990180662606562  0.8385512865044689
  0.4201736909854787  0.8026574916050961  0.8580722953910112
  0.3820276048789140  0.5797007665566269  0.5248379285310847
  0.1982903002503775  0.6178179350268422  0.1914563508126150
  0.0005432963768470  0.2708677039572578  0.2701958504790412
  0.7278752058952236  0.7293920284763971  0.6038393973445650
  0.2692692744272449  0.9991744494448724  0.9367851995480976
  0.3438371874753230  0.9666728824999282  0.7187612890133295
  0.6218481433935352  0.6550570526341986  0.3861070746043822
  0.0328617377847138  0.3774718732867512  0.0523060909868036
  0.1888656054311966  0.2034906636932021  0.1459976830802461
  0.7970748133572911  0.9842541586653866  0.4791251507419574
  0.0152891131736723  0.8122084101322855  0.8122409544873435
  0.1994945667430486  0.1988376695757950  0.8139359975906260
  0.9993500357426086  0.8010778164783403  0.4803341475833420
  0.8028622420575715  0.0004842520801134  0.1471618643245165
  0.0319715854304192  0.4182947675649515  0.8667342751288842
  0.5827399380762941  0.6136374669885427  0.2001956490170755
  0.3860686928744954  0.9676858157897996  0.5328733582459151
  0.3777775004173591  0.0049002887510667  0.1364943769415561
  0.6282287856561908  0.6235614516097101  0.8030616633661651
  0.9956509877026107  0.3717349800183243  0.4693199741357077
 
  0.00000000E+00  0.00000000E+00  0.00000000E+00
  0.00000000E+00  0.00000000E+00  0.00000000E+00
  0.00000000E+00  0.00000000E+00  0.00000000E+00
  0.00000000E+00  0.00000000E+00  0.00000000E+00
  0.00000000E+00  0.00000000E+00  0.00000000E+00
  0.00000000E+00  0.00000000E+00  0.00000000E+00
  0.00000000E+00  0.00000000E+00  0.00000000E+00
  0.00000000E+00  0.00000000E+00  0.00000000E+00
  0.00000000E+00  0.00000000E+00  0.00000000E+00
  0.00000000E+00  0.00000000E+00  0.00000000E+00
  0.00000000E+00  0.00000000E+00  0.00000000E+00
  0.00000000E+00  0.00000000E+00  0.00000000E+00
  0.00000000E+00  0.00000000E+00  0.00000000E+00
  0.00000000E+00  0.00000000E+00  0.00000000E+00
  0.00000000E+00  0.00000000E+00  0.00000000E+00
  0.00000000E+00  0.00000000E+00  0.00000000E+00
  0.00000000E+00  0.00000000E+00  0.00000000E+00
  0.00000000E+00  0.00000000E+00  0.00000000E+00
  0.00000000E+00  0.00000000E+00  0.00000000E+00
  0.00000000E+00  0.00000000E+00  0.00000000E+00
  0.00000000E+00  0.00000000E+00  0.00000000E+00
  0.00000000E+00  0.00000000E+00  0.00000000E+00
  0.00000000E+00  0.00000000E+00  0.00000000E+00
  0.00000000E+00  0.00000000E+00  0.00000000E+00
  0.00000000E+00  0.00000000E+00  0.00000000E+00
  0.00000000E+00  0.00000000E+00  0.00000000E+00
  0.00000000E+00  0.00000000E+00  0.00000000E+00
  0.00000000E+00  0.00000000E+00  0.00000000E+00
  0.00000000E+00  0.00000000E+00  0.00000000E+00
  0.00000000E+00  0.00000000E+00  0.00000000E+00
  0.00000000E+00  0.00000000E+00  0.00000000E+00
  0.00000000E+00  0.00000000E+00  0.00000000E+00
  0.00000000E+00  0.00000000E+00  0.00000000E+00
  0.00000000E+00  0.00000000E+00  0.00000000E+00
  0.00000000E+00  0.00000000E+00  0.00000000E+00
  0.00000000E+00  0.00000000E+00  0.00000000E+00
  0.00000000E+00  0.00000000E+00  0.00000000E+00
  0.00000000E+00  0.00000000E+00  0.00000000E+00
  0.00000000E+00  0.00000000E+00  0.00000000E+00
  0.00000000E+00  0.00000000E+00  0.00000000E+00
  0.00000000E+00  0.00000000E+00  0.00000000E+00
  0.00000000E+00  0.00000000E+00  0.00000000E+00
  0.00000000E+00  0.00000000E+00  0.00000000E+00
  0.00000000E+00  0.00000000E+00  0.00000000E+00
  0.00000000E+00  0.00000000E+00  0.00000000E+00
  0.00000000E+00  0.00000000E+00  0.00000000E+00
  0.00000000E+00  0.00000000E+00  0.00000000E+00
  0.00000000E+00  0.00000000E+00  0.00000000E+00
  0.00000000E+00  0.00000000E+00  0.00000000E+00
  0.00000000E+00  0.00000000E+00  0.00000000E+00
  0.00000000E+00  0.00000000E+00  0.00000000E+00
  0.00000000E+00  0.00000000E+00  0.00000000E+00
  0.00000000E+00  0.00000000E+00  0.00000000E+00
  0.00000000E+00  0.00000000E+00  0.00000000E+00
  0.00000000E+00  0.00000000E+00  0.00000000E+00
  0.00000000E+00  0.00000000E+00  0.00000000E+00
  0.00000000E+00  0.00000000E+00  0.00000000E+00
  0.00000000E+00  0.00000000E+00  0.00000000E+00
  0.00000000E+00  0.00000000E+00  0.00000000E+00
  0.00000000E+00  0.00000000E+00  0.00000000E+00
  0.00000000E+00  0.00000000E+00  0.00000000E+00
  0.00000000E+00  0.00000000E+00  0.00000000E+00
  0.00000000E+00  0.00000000E+00  0.00000000E+00
