Ca3 Cr12 F42                            
   1.00000000000000     
     7.2340806338156440   -0.0216795091244963   -0.0191921328971464
    -3.5983040239105701    6.2761160858699272    0.0237553229883929
     0.0316457832035239   -0.0223061559865380   17.2716668580887749
   Ca   Cr   F 
     3    12    42
Direct
  0.8738560453259560  0.0173459540282707  0.3362469743631201
  0.9830722553506621  0.8567627360687510  0.6693552785586362
  0.1438521350055794  0.1259765219401816  0.0031800575303679
  0.3194181367745470  0.0025392274486677  0.3333607501184840
  0.9974870724578258  0.3161628121481708  0.6671521123586335
  0.6834748819721431  0.6816890588715911  0.9997062868758375
  0.3249212361562802  0.9963180796934883  0.8338818225439889
  0.0033970160394722  0.3300633930143915  0.1662690311398002
  0.6706336685269713  0.6732418016091698  0.4987000899844128
  0.4978898180129711  0.8328231190695079  0.1651649810402727
  0.1689248780106425  0.6663568072906982  0.4992344077150221
  0.3335757406882279  0.5021832568872902  0.8328319235244219
  0.8280158598757860  0.4918006170697684  0.8348794983866026
  0.6653868073765666  0.1710066288316035  0.5007970114228918
  0.5075304229613022  0.3374373532017286  0.1680961902154531
  0.7408226443795201  0.2125680984846056  0.6068698615915121
  0.7860313913465332  0.5263503889630265  0.9406868178403778
  0.4739568025519463  0.2608751088612676  0.2740350174722120
  0.1920188057814073  0.7453799231550458  0.3936862090418842
  0.5550087487644416  0.8106991453106527  0.0596801180247643
  0.2543813219232148  0.4446897091680535  0.7274203197956308
  0.8301216132379909  0.9231461365275414  0.9379513678399845
  0.0775931672710396  0.9071651228063187  0.2716788127692746
  0.0941266688343809  0.1715482551471666  0.6051921918975082
  0.9256547379778488  0.8076575519924450  0.0625909145551004
  0.8814205869367298  0.0726063343562810  0.7293745390659959
  0.1919604702850817  0.1172471119282870  0.3960848984855271
  0.5193559536714214  0.4103921136314077  0.0595063493770446
  0.5917570467429847  0.1105845186631698  0.3924273146959378
  0.8880167789870838  0.4781040907800447  0.7264727135374256
  0.4142332712331596  0.5425415377368481  0.9401527015216681
  0.1260115835904188  0.5856659151549576  0.6069407495121791
  0.4583402392957834  0.8737660555113075  0.2728008367689281
  0.8003393597609607  0.4257150365529467  0.1731148085431352
  0.5763239413129044  0.3748716891896478  0.5060453364940675
  0.6236352846297193  0.1991206644051910  0.8412564769388204
  0.4130205976765794  0.7903702319242354  0.8168845711365156
  0.3758445598277714  0.5843360865119898  0.4838284929692843
  0.2094718468182371  0.6244766878753952  0.1499776800285638
  0.0359641421310223  0.3377027610923057  0.2748914066688053
  0.6634396978821862  0.6972828927797877  0.6073171686898975
  0.2989970335091064  0.9605447325180345  0.9422991005952271
  0.3091999395210374  0.0299975262037193  0.7261671669649445
  0.7169535992706483  0.6889090024403270  0.3909731846031035
  0.9721984906429060  0.2818338226969380  0.0584882419001811
  0.2087280808680832  0.2338857928936990  0.1535671542455244
  0.7678617100518459  0.9750824451713475  0.4859649309513764
  0.0235972762596902  0.7904745272459178  0.8199832196446687
  0.2414817800818212  0.2085506150702099  0.8564646890150599
  0.9672445131279505  0.7587639125231688  0.5209746515099460
  0.7915159465347315  0.0337903114010261  0.1882266434240920
  0.0526515859533249  0.4374879791378316  0.8635370385675684
  0.5618846989662675  0.6162801615724818  0.1964928311852235
  0.3862762332520460  0.9468640127158560  0.5298020426118270
  0.4420859089197828  0.0569692092588681  0.1358580018311969
  0.6129888902021160  0.5575834719610672  0.8032481162340391
  0.9460471104533630  0.3864119765063094  0.4693287866760125
 
  0.00000000E+00  0.00000000E+00  0.00000000E+00
  0.00000000E+00  0.00000000E+00  0.00000000E+00
  0.00000000E+00  0.00000000E+00  0.00000000E+00
  0.00000000E+00  0.00000000E+00  0.00000000E+00
  0.00000000E+00  0.00000000E+00  0.00000000E+00
  0.00000000E+00  0.00000000E+00  0.00000000E+00
  0.00000000E+00  0.00000000E+00  0.00000000E+00
  0.00000000E+00  0.00000000E+00  0.00000000E+00
  0.00000000E+00  0.00000000E+00  0.00000000E+00
  0.00000000E+00  0.00000000E+00  0.00000000E+00
  0.00000000E+00  0.00000000E+00  0.00000000E+00
  0.00000000E+00  0.00000000E+00  0.00000000E+00
  0.00000000E+00  0.00000000E+00  0.00000000E+00
  0.00000000E+00  0.00000000E+00  0.00000000E+00
  0.00000000E+00  0.00000000E+00  0.00000000E+00
  0.00000000E+00  0.00000000E+00  0.00000000E+00
  0.00000000E+00  0.00000000E+00  0.00000000E+00
  0.00000000E+00  0.00000000E+00  0.00000000E+00
  0.00000000E+00  0.00000000E+00  0.00000000E+00
  0.00000000E+00  0.00000000E+00  0.00000000E+00
  0.00000000E+00  0.00000000E+00  0.00000000E+00
  0.00000000E+00  0.00000000E+00  0.00000000E+00
  0.00000000E+00  0.00000000E+00  0.00000000E+00
  0.00000000E+00  0.00000000E+00  0.00000000E+00
  0.00000000E+00  0.00000000E+00  0.00000000E+00
  0.00000000E+00  0.00000000E+00  0.00000000E+00
  0.00000000E+00  0.00000000E+00  0.00000000E+00
  0.00000000E+00  0.00000000E+00  0.00000000E+00
  0.00000000E+00  0.00000000E+00  0.00000000E+00
  0.00000000E+00  0.00000000E+00  0.00000000E+00
  0.00000000E+00  0.00000000E+00  0.00000000E+00
  0.00000000E+00  0.00000000E+00  0.00000000E+00
  0.00000000E+00  0.00000000E+00  0.00000000E+00
  0.00000000E+00  0.00000000E+00  0.00000000E+00
  0.00000000E+00  0.00000000E+00  0.00000000E+00
  0.00000000E+00  0.00000000E+00  0.00000000E+00
  0.00000000E+00  0.00000000E+00  0.00000000E+00
  0.00000000E+00  0.00000000E+00  0.00000000E+00
  0.00000000E+00  0.00000000E+00  0.00000000E+00
  0.00000000E+00  0.00000000E+00  0.00000000E+00
  0.00000000E+00  0.00000000E+00  0.00000000E+00
  0.00000000E+00  0.00000000E+00  0.00000000E+00
  0.00000000E+00  0.00000000E+00  0.00000000E+00
  0.00000000E+00  0.00000000E+00  0.00000000E+00
  0.00000000E+00  0.00000000E+00  0.00000000E+00
  0.00000000E+00  0.00000000E+00  0.00000000E+00
  0.00000000E+00  0.00000000E+00  0.00000000E+00
  0.00000000E+00  0.00000000E+00  0.00000000E+00
  0.00000000E+00  0.00000000E+00  0.00000000E+00
  0.00000000E+00  0.00000000E+00  0.00000000E+00
  0.00000000E+00  0.00000000E+00  0.00000000E+00
  0.00000000E+00  0.00000000E+00  0.00000000E+00
  0.00000000E+00  0.00000000E+00  0.00000000E+00
  0.00000000E+00  0.00000000E+00  0.00000000E+00
  0.00000000E+00  0.00000000E+00  0.00000000E+00
  0.00000000E+00  0.00000000E+00  0.00000000E+00
  0.00000000E+00  0.00000000E+00  0.00000000E+00
