Ca3 V4 F14                              
   1.00000000000000     
    -7.6552911960874690   -0.0018809336607133   -0.0014634626849118
    -3.8247484358667343   -5.2951346687546303   -3.7520977832491531
    -3.8275699234282654   -5.2020171255702996    3.5848884760369737
   Ca   V    F 
     3     4    14
Direct
  0.4998716148068780  0.4999038517745831  0.5000944953537712
  0.0000773696767453  0.0000665505361326  0.4999439618633303
  0.5000110070007082  0.9999664697241712  0.5000195756467178
  0.5000956231258442  0.9999728729720090  0.9999826566264218
  0.0000247858875184  0.5000124746523369  0.4999619997403073
  0.9999596556050037  0.4999953383215967  0.0000979337080267
  0.4999854059162772  0.5000317210947713  0.9999934662381023
  0.6999540609329458  0.4678490053367739  0.1321112324455811
  0.2999408689559857  0.5322387016834540  0.8678682021955382
  0.8759797952461028  0.8549627721026241  0.3930014591679978
  0.1240758467208636  0.1450712236976628  0.6069708665926186
  0.3895532382992073  0.8569936523991117  0.3636930286284112
  0.6105384397238325  0.1429037429035276  0.6362876812890335
  0.1064076148210731  0.5803281065813621  0.6512138797120386
  0.3380220380435119  0.4197230029852292  0.3489202750490321
  0.5719061831280143  0.1611603281993368  0.1035364450760667
  0.8367589622739544  0.8391019223887781  0.8966597556425882
  0.8935091671871831  0.4197414347237327  0.3487564104263043
  0.6619391790220348  0.5802381729120967  0.6511056768445371
  0.4280517458075934  0.8388395885328919  0.8964811318345909
  0.1633373978187294  0.1608990664778034  0.1032998659189772
 
  0.00000000E+00  0.00000000E+00  0.00000000E+00
  0.00000000E+00  0.00000000E+00  0.00000000E+00
  0.00000000E+00  0.00000000E+00  0.00000000E+00
  0.00000000E+00  0.00000000E+00  0.00000000E+00
  0.00000000E+00  0.00000000E+00  0.00000000E+00
  0.00000000E+00  0.00000000E+00  0.00000000E+00
  0.00000000E+00  0.00000000E+00  0.00000000E+00
  0.00000000E+00  0.00000000E+00  0.00000000E+00
  0.00000000E+00  0.00000000E+00  0.00000000E+00
  0.00000000E+00  0.00000000E+00  0.00000000E+00
  0.00000000E+00  0.00000000E+00  0.00000000E+00
  0.00000000E+00  0.00000000E+00  0.00000000E+00
  0.00000000E+00  0.00000000E+00  0.00000000E+00
  0.00000000E+00  0.00000000E+00  0.00000000E+00
  0.00000000E+00  0.00000000E+00  0.00000000E+00
  0.00000000E+00  0.00000000E+00  0.00000000E+00
  0.00000000E+00  0.00000000E+00  0.00000000E+00
  0.00000000E+00  0.00000000E+00  0.00000000E+00
  0.00000000E+00  0.00000000E+00  0.00000000E+00
  0.00000000E+00  0.00000000E+00  0.00000000E+00
  0.00000000E+00  0.00000000E+00  0.00000000E+00
