Cr4 F10                                 
   1.00000000000000     
    -3.1879270204276722   -3.7273512488446356    2.1727279639697130
    -3.1879197544630347    3.7273597177807800    2.1727197560603435
    -6.4480635372590784    0.0000237284658768   -3.0644501652040681
   Cr   F 
     4    10
Direct
  0.9999027076513798  0.0003444610152670  0.5000564976321016
  0.5003540906877788  0.4998997124565250  0.0000576423558414
  0.5000482160049202  0.4999029241996311  0.5000350796504591
  0.9999053318384057  0.0000500911667771  0.0000351020113598
  0.8210502494501668  0.6789477605204866  0.2499733304724927
  0.1789395648658498  0.3210491965408195  0.7499883366864495
  0.3504413951626901  0.4075868026375318  0.3228404389147670
  0.0922792530338228  0.1497990496865000  0.1770995935103556
  0.6497970581718491  0.5922895918979236  0.6770954081189871
  0.9075967422958087  0.8504430084092576  0.8228381248897989
  0.6695538546195010  0.1789748633759984  0.5437999982339292
  0.3210417782237229  0.8301178354898653  0.9561986570333616
  0.3301162807434039  0.8210456750116180  0.4561887326520804
  0.6789734772507003  0.1695490275917848  0.0437930578380232
 
  0.00000000E+00  0.00000000E+00  0.00000000E+00
  0.00000000E+00  0.00000000E+00  0.00000000E+00
  0.00000000E+00  0.00000000E+00  0.00000000E+00
  0.00000000E+00  0.00000000E+00  0.00000000E+00
  0.00000000E+00  0.00000000E+00  0.00000000E+00
  0.00000000E+00  0.00000000E+00  0.00000000E+00
  0.00000000E+00  0.00000000E+00  0.00000000E+00
  0.00000000E+00  0.00000000E+00  0.00000000E+00
  0.00000000E+00  0.00000000E+00  0.00000000E+00
  0.00000000E+00  0.00000000E+00  0.00000000E+00
  0.00000000E+00  0.00000000E+00  0.00000000E+00
  0.00000000E+00  0.00000000E+00  0.00000000E+00
  0.00000000E+00  0.00000000E+00  0.00000000E+00
  0.00000000E+00  0.00000000E+00  0.00000000E+00
