Ca1 Cr12 F42                            
   1.00000000000000     
     7.2357760000000004   -0.0267790000000000   -0.0143640000000000
    -3.5913620000000002    6.2762159999999998    0.0493260000000000
     0.0441540000000000    0.1879680000000000   17.2228349999999999
   Ca   Cr   F 
     1    12    42
Direct
  0.8514637929928471  0.1455311485792894  0.3401277543909995
  0.2736633617888441 -0.0068840864278410  0.3279478095536600
  0.7253537667383170  0.7235930723367541  0.9973672623164704
  0.9968401846870192  0.2804698781769490  0.6707814460984189
  0.3590760278436789  1.0014519727947626  0.8343234362125701
  0.6309297500526122  0.6411152202805497  0.5015943764507932
  1.0157954762325130  0.3717464418938759  0.1598864330519121
  0.6257210521994165  0.1419175589158075  0.5082167282070571
  0.5093486256776716  0.3623726520091518  0.1647061226327273
  0.8588848963564230  0.5025362211715736  0.8336053287640035
  0.3576626080334147  0.5004070635812716  0.8347064068650039
  0.1317404125215202  0.6434423223821120  0.5014368736705000
  0.5141010636339974  0.8639162962217116  0.1650685424151611
  0.5921755665817791  0.8458934827905905  0.0607278032966354
  0.2561888154653925  0.4321040412494546  0.7296019010366299
  0.1600872893676102  0.7408489915759718  0.3948245887460859
  0.4319083713292371  0.2582339969834412  0.2702371939321280
  0.8324516120576156  0.5732027636949559  0.9379081990663578
  0.7339185335425711  0.1573428066858198  0.6097252290410918
  0.8859771867079503  0.0666782281232590  0.7361144247265399
  0.1162008252658173  0.0970266708940677  0.3795264766084330
  0.9430745916768656  0.8217351939507327  0.0589917251024543
  0.1144742805528891  0.1862133170285155  0.6060285579189580
  0.0687219078623575  0.8709161792643999  0.2578194704920124
  0.8197833306666719  0.9356950440267494  0.9314882108796468
  0.1022705726021693  0.5401762738000910  0.6049346920380381
  0.4635005463761835  0.9034409015985807  0.2751931662561531
  0.4582813422264385  0.5747355575088315  0.9389295608092700
  0.8794159954738775  0.4262169944825250  0.7295123512929258
  0.5356135220939318  0.1280319192308896  0.3999465438901926
  0.5836155249632334  0.4621191072845107  0.0607863177290338
  0.3380981937112699  0.5567920427232605  0.4782133227564536
  0.2240373329424170  0.6639742514039052  0.1396586556710294
  0.4436043881749286  0.7951749584449389  0.8127343998241610
  0.6494838692931590  0.2085955235109560  0.8564977019019058
  0.5476821099253972  0.3508514564977426  0.5314370562693319
  0.7996765388184953  0.4415901960222618  0.1893351059333065
  0.6738009674272920  0.6001419401607928  0.4016877289687911
  0.9279174431675249  0.3231684742747245  0.0629740206411142
  0.3974972846080855  0.0825060077942067  0.7356273036776226
  0.3154359382256300  0.9205831632178184  0.9328868767104043
  0.5947431955321877  0.6958071120233924  0.5986187551751695
  0.0899320497092340  0.4079237546272498  0.2674392556109649
  0.9240565555361916  0.7289485239806431  0.5219601731743058
  0.8062187276737569  0.0758567917639168  0.1959794032350244
  0.2725121642156979  0.2073867508516324  0.8563493921441432
  0.0672048329201432  0.7946257285103826  0.8112613271446979
  0.7101203890977628  0.9393613031384430  0.4704754714386457
  0.2183775275635096  0.2798774861805473  0.1426671069099767
  0.6362731444357832  0.5586533549984557  0.8010428440456848
  0.9065697778581281  0.3591374914229149  0.4652670231131829
  0.4572209831225290  0.0866994188317793  0.1331784590104990
  0.3463802222279057  0.9186170881536897  0.5371853420689283
  0.5664197405191879  0.6397284977689633  0.1989157306303809
  0.0790429427160028  0.4438299302610272  0.8671331640401357
 
             NaN             NaN             NaN
             NaN             NaN             NaN
             NaN             NaN             NaN
             NaN             NaN             NaN
             NaN             NaN             NaN
             NaN             NaN             NaN
             NaN             NaN             NaN
             NaN             NaN             NaN
             NaN             NaN             NaN
             NaN             NaN             NaN
             NaN             NaN             NaN
             NaN             NaN             NaN
             NaN             NaN             NaN
             NaN             NaN             NaN
             NaN             NaN             NaN
             NaN             NaN             NaN
             NaN             NaN             NaN
             NaN             NaN             NaN
             NaN             NaN             NaN
             NaN             NaN             NaN
             NaN             NaN             NaN
             NaN             NaN             NaN
             NaN             NaN             NaN
             NaN             NaN             NaN
             NaN             NaN             NaN
             NaN             NaN             NaN
             NaN             NaN             NaN
             NaN             NaN             NaN
             NaN             NaN             NaN
             NaN             NaN             NaN
             NaN             NaN             NaN
             NaN             NaN             NaN
             NaN             NaN             NaN
             NaN             NaN             NaN
             NaN             NaN             NaN
             NaN             NaN             NaN
             NaN             NaN             NaN
             NaN             NaN             NaN
             NaN             NaN             NaN
             NaN             NaN             NaN
             NaN             NaN             NaN
             NaN             NaN             NaN
             NaN             NaN             NaN
             NaN             NaN             NaN
             NaN             NaN             NaN
             NaN             NaN             NaN
             NaN             NaN             NaN
             NaN             NaN             NaN
             NaN             NaN             NaN
             NaN             NaN             NaN
             NaN             NaN             NaN
             NaN             NaN             NaN
             NaN             NaN             NaN
             NaN             NaN             NaN
             NaN             NaN             NaN
