Ca1 Cr12 F42
1.0
7.235776 -0.026779 -0.014364
-3.591362 6.276216 0.049326
0.044154 0.187968 17.222835
Ca Cr F
1 12 42
direct
0.849760 0.172853 0.330768 Ca
0.297885 0.002265 0.333543 Cr
0.713886 0.714207 0.997402 Cr
0.998321 0.284076 0.669308 Cr
0.359134 0.997946 0.833654 Cr
0.645379 0.653141 0.504087 Cr
0.994855 0.348627 0.162421 Cr
0.646270 0.153635 0.504272 Cr
0.494391 0.349885 0.163020 Cr
0.858545 0.500332 0.834073 Cr
0.356060 0.495606 0.833214 Cr
0.147238 0.651756 0.503845 Cr
0.494179 0.848413 0.162619 Cr
0.565860 0.826953 0.057843 F
0.257330 0.421004 0.728838 F
0.171564 0.742180 0.396092 F
0.443280 0.261671 0.271372 F
0.826885 0.566676 0.938771 F
0.737848 0.182302 0.608942 F
0.877865 0.066328 0.732951 F
0.176086 0.115574 0.395626 F
0.922394 0.805877 0.063407 F
0.107982 0.183705 0.603724 F
0.055751 0.883395 0.273250 F
0.819988 0.931949 0.933650 F
0.122328 0.551433 0.607438 F
0.441672 0.880547 0.270969 F
0.453621 0.573150 0.936706 F
0.886858 0.433512 0.729801 F
0.569026 0.121249 0.394036 F
0.560536 0.446434 0.058753 F
0.355726 0.572247 0.479195 F
0.200396 0.644025 0.147078 F
0.438743 0.788314 0.809357 F
0.650771 0.204881 0.854744 F
0.552704 0.356145 0.516166 F
0.787206 0.435760 0.185579 F
0.697366 0.653277 0.396771 F
0.925643 0.315492 0.063314 F
0.395611 0.080028 0.735099 F
0.320602 0.915505 0.932116 F
0.602508 0.679018 0.603192 F
0.040790 0.358540 0.270791 F
0.937594 0.733129 0.523806 F
0.786538 0.050920 0.186813 F
0.275034 0.205002 0.857405 F
0.065529 0.793615 0.813077 F
0.740856 0.953735 0.483100 F
0.201025 0.260320 0.146718 F
0.636191 0.555907 0.800838 F
0.924045 0.376184 0.467975 F
0.437042 0.071771 0.132023 F
0.365790 0.930890 0.534521 F
0.552293 0.627311 0.197102 F
0.077990 0.439587 0.866500 F
