Ca6 Fe12 F42                            
   1.00000000000000     
     7.3910963013310518    0.0048321945321754   -0.0261664344157233
    -3.7005865248741334    6.3973822764164341    0.0971920940550608
     0.0741334212792790   -0.2179563439741101   18.4553190519561738
   Ca   Fe   F 
     6    12    42
Direct
  0.8420175634347942  0.9922732427946457  0.3446092695475897
  0.0062919523506935  0.8499564756913074  0.6787872498197274
  0.1508109076617927  0.1583461584140764  0.0119658479619815
  0.7753769163714139  0.9877956419399325  0.8390539665210497
  0.0125747670830094  0.7879133918339889  0.1719258136456361
  0.2131262430399801  0.2241178673336393  0.5047449003085802
  0.3466652434999347  0.0045494323017152  0.3372548652226826
  0.9950687211819158  0.3418670037644631  0.6696471528386709
  0.6576281843092957  0.6544564396920762  0.0036633394798571
  0.3033674655978515  0.9941820918460067  0.8337730834684578
  0.0053458931399462  0.3111235327313651  0.1667086376133895
  0.6923989697491848  0.6942400590267326  0.4997614404599915
  0.5064145830366513  0.8111129244765962  0.1684471845629361
  0.1925238191645064  0.6964352248458141  0.5022297322024372
  0.3022213283932942  0.4931245974380403  0.8350959538594722
  0.8058091040315958  0.4971390825147637  0.8332546714090867
  0.6932826014234266  0.1917272254951357  0.4997012234983629
  0.5016781815932703  0.3102685311343336  0.1669363688795542
  0.7592873063812178  0.2234718758431953  0.6022112843001466
  0.7733854566448883  0.5355694131546116  0.9355084608974451
  0.4643062758683811  0.2396294941082004  0.2692212450496712
  0.2701513393805257  0.7576962620945196  0.4028527584580317
  0.4889834564894358  0.7323390911751275  0.0693588897470008
  0.2407084635497370  0.5092595772569908  0.7358585313516173
  0.8273876570997629  0.9582819989744706  0.9529567151108580
  0.0426146184186251  0.8694116284614211  0.2858926961824011
  0.1293379285916458  0.1725103805281734  0.6187254292337769
  0.9434998409502171  0.8241857262692065  0.0606447138810609
  0.8797693190648346  0.0565241083950170  0.7274280880578914
  0.1757099522013874  0.1197358504838917  0.3934084074202104
  0.4892447790283612  0.3629513129828510  0.0615270120867848
  0.6390382408513986  0.1273069450421573  0.3945279113691242
  0.8715734894609213  0.5103672855799886  0.7279035256052779
  0.3547021109597921  0.4611710606235633  0.9356537771909643
  0.1058863217556549  0.6440449617274240  0.6024714483516362
  0.5390389540684453  0.8953991680120694  0.2688532984098160
  0.8227617055487144  0.4281712252947614  0.1670479246543053
  0.5735981275738098  0.3943284544650041  0.5000214496174422
  0.6032767080346559  0.1759992482637998  0.8337346228039095
  0.3793928499946375  0.7811203537449245  0.8555231456719667
  0.4031073335019570  0.6188144292905449  0.5223294309473090
  0.2180863086727101  0.6000715726061330  0.1890310414568148
  0.9772732046201824  0.2532841338383278  0.2657381328732953
  0.7490430718597949  0.7242897544848717  0.5988151233008736
  0.2746049992696555  0.0217897537008938  0.9328862977921304
  0.3115678769730224  0.9502711421991563  0.7340186247520606
  0.6380940649741902  0.6863305459583202  0.4002444908893565
  0.0515798051651473  0.3649025782815443  0.0671341629222084
  0.1710997220606743  0.1725313644061401  0.1549824207502652
  0.8295242571096466  0.9987059209791127  0.4877004932554740
  0.9992039865124127  0.8276712076540491  0.8218575804786568
  0.2509963313668422  0.2193219203575154  0.8143698280657148
  0.9692760918787400  0.7461896222605660  0.4800516118598992
  0.7794305590245116  0.0343503923687578  0.1466906375348458
  0.0061077551086584  0.3663531011834067  0.8556736558198708
  0.6334707013472638  0.6419218788855403  0.1888346032141044
  0.3608204997355813  0.9923946053057975  0.5220401696122678
  0.3783079150607804  0.9792235799365230  0.1478551919192128
  0.5984599294767463  0.6212831272889474  0.8143684536090277
  0.0236882443018587  0.4001950882578669  0.4813860041957767
 
  0.00000000E+00  0.00000000E+00  0.00000000E+00
  0.00000000E+00  0.00000000E+00  0.00000000E+00
  0.00000000E+00  0.00000000E+00  0.00000000E+00
  0.00000000E+00  0.00000000E+00  0.00000000E+00
  0.00000000E+00  0.00000000E+00  0.00000000E+00
  0.00000000E+00  0.00000000E+00  0.00000000E+00
  0.00000000E+00  0.00000000E+00  0.00000000E+00
  0.00000000E+00  0.00000000E+00  0.00000000E+00
  0.00000000E+00  0.00000000E+00  0.00000000E+00
  0.00000000E+00  0.00000000E+00  0.00000000E+00
  0.00000000E+00  0.00000000E+00  0.00000000E+00
  0.00000000E+00  0.00000000E+00  0.00000000E+00
  0.00000000E+00  0.00000000E+00  0.00000000E+00
  0.00000000E+00  0.00000000E+00  0.00000000E+00
  0.00000000E+00  0.00000000E+00  0.00000000E+00
  0.00000000E+00  0.00000000E+00  0.00000000E+00
  0.00000000E+00  0.00000000E+00  0.00000000E+00
  0.00000000E+00  0.00000000E+00  0.00000000E+00
  0.00000000E+00  0.00000000E+00  0.00000000E+00
  0.00000000E+00  0.00000000E+00  0.00000000E+00
  0.00000000E+00  0.00000000E+00  0.00000000E+00
  0.00000000E+00  0.00000000E+00  0.00000000E+00
  0.00000000E+00  0.00000000E+00  0.00000000E+00
  0.00000000E+00  0.00000000E+00  0.00000000E+00
  0.00000000E+00  0.00000000E+00  0.00000000E+00
  0.00000000E+00  0.00000000E+00  0.00000000E+00
  0.00000000E+00  0.00000000E+00  0.00000000E+00
  0.00000000E+00  0.00000000E+00  0.00000000E+00
  0.00000000E+00  0.00000000E+00  0.00000000E+00
  0.00000000E+00  0.00000000E+00  0.00000000E+00
  0.00000000E+00  0.00000000E+00  0.00000000E+00
  0.00000000E+00  0.00000000E+00  0.00000000E+00
  0.00000000E+00  0.00000000E+00  0.00000000E+00
  0.00000000E+00  0.00000000E+00  0.00000000E+00
  0.00000000E+00  0.00000000E+00  0.00000000E+00
  0.00000000E+00  0.00000000E+00  0.00000000E+00
  0.00000000E+00  0.00000000E+00  0.00000000E+00
  0.00000000E+00  0.00000000E+00  0.00000000E+00
  0.00000000E+00  0.00000000E+00  0.00000000E+00
  0.00000000E+00  0.00000000E+00  0.00000000E+00
  0.00000000E+00  0.00000000E+00  0.00000000E+00
  0.00000000E+00  0.00000000E+00  0.00000000E+00
  0.00000000E+00  0.00000000E+00  0.00000000E+00
  0.00000000E+00  0.00000000E+00  0.00000000E+00
  0.00000000E+00  0.00000000E+00  0.00000000E+00
  0.00000000E+00  0.00000000E+00  0.00000000E+00
  0.00000000E+00  0.00000000E+00  0.00000000E+00
  0.00000000E+00  0.00000000E+00  0.00000000E+00
  0.00000000E+00  0.00000000E+00  0.00000000E+00
  0.00000000E+00  0.00000000E+00  0.00000000E+00
  0.00000000E+00  0.00000000E+00  0.00000000E+00
  0.00000000E+00  0.00000000E+00  0.00000000E+00
  0.00000000E+00  0.00000000E+00  0.00000000E+00
  0.00000000E+00  0.00000000E+00  0.00000000E+00
  0.00000000E+00  0.00000000E+00  0.00000000E+00
  0.00000000E+00  0.00000000E+00  0.00000000E+00
  0.00000000E+00  0.00000000E+00  0.00000000E+00
  0.00000000E+00  0.00000000E+00  0.00000000E+00
  0.00000000E+00  0.00000000E+00  0.00000000E+00
  0.00000000E+00  0.00000000E+00  0.00000000E+00
