Mn12 F42                                
   1.00000000000000     
     7.1711152168328809   -0.0250468231280694    0.0449608327047719
    -3.6064656832227970    6.2229406762826907   -0.0270574980000791
     0.3287873934741112   -0.0183018433925259   16.8838792646260458
   Mn   F 
    12    42
Direct
  0.2835349013156190  0.9920362872311941  0.3357247769801219
  0.7144782338748925  0.7150676954195916  0.9992252287541206
  0.0022318916739650  0.2897601375963816  0.6656971306757953
  0.3521065448410283  0.0071698257950388  0.8311566374424970
  0.6495755297654071  0.6492710877592458  0.5014461015920162
  0.9977919111771101  0.3453633944377756  0.1676668711019786
  0.6469400282368767  0.1485590396095020  0.5007616166361331
  0.4990050414051481  0.3469818441951915  0.1660389648479281
  0.8544451882876345  0.5069646277669406  0.8320045159402412
  0.3548658596735592  0.5082215522978473  0.8314780033028342
  0.1491517871392887  0.6481483083389392  0.5005881582312526
  0.4982045533495167  0.8462888646948343  0.1667697545164444
  0.5749868229263271  0.8285499692302167  0.0617765476244685
  0.2522933976990203  0.4328382445969936  0.7211944001928288
  0.1774283651087742  0.7361552830562488  0.3958203058564322
  0.4105573911273481  0.2354276310131738  0.2762547841888008
  0.8314692144630413  0.5789897023055346  0.9367933824389638
  0.7516947506680367  0.1797894191426579  0.6105928576813042
  0.8947864703561450  0.0779804379846922  0.7316725039817058
  0.1759375634316740  0.0940845369795511  0.4043575078751047
  0.9313720479451462  0.8216541162897144  0.0623370184671614
  0.1100157936820594  0.1851248739013087  0.5983388802157563
  0.0610229811548209  0.8717514213781143  0.2753497625236037
  0.8236162033613965  0.9340429338614484  0.9357993888156102
  0.1169187713345821  0.5516991971574470  0.6032478623727471
  0.4209479629074622  0.8695199194851995  0.2693485483495621
  0.4629894945230362  0.5822303634547197  0.9396936954692805
  0.8847679680021940  0.4353533364478253  0.7295292701978937
  0.5393781967074176  0.1068291745952195  0.3922223251825585
  0.5789201429942921  0.4604852805740052  0.0581550823746753
  0.3659977008121871  0.5664091127321669  0.4764255061005613
  0.2031389253491298  0.6295213196879175  0.1416990047935016
  0.4355956804119359  0.8093948017975947  0.8048557788415067
  0.6356634002097081  0.2115079267130113  0.8570758847402402
  0.5664798380917233  0.3692205534348147  0.5280744273784208
  0.7970971691928384  0.4257258324186211  0.1946292802681242
  0.6991380718722624  0.5970637722365382  0.4032253723764612
  0.9049762688417502  0.2991206060327940  0.0697804135364279
  0.4042313896956031  0.1035623200829789  0.7330840799813174
  0.3003475145865195  0.9108317136437165  0.9292980240937325
  0.5995528561683869  0.7006561637090982  0.5997496306980707
  0.0905951769376401  0.3922862222829551  0.2655552879036946
  0.9335039117223971  0.7312817238791993  0.5255279530573915
  0.7937272495869649  0.0602952689643246  0.1923814476198160
  0.2687258665542487  0.2051594435432875  0.8569386672573529
  0.0684925612787808  0.8035089545599803  0.8062682890671979
  0.7316186109190852  0.9290010386424825  0.4752834211720511
  0.1971083245851943  0.2632212238616773  0.1410397718564766
  0.6239789611524813  0.5664709444314582  0.7982313659971396
  0.9160909345027974  0.3569777290314136  0.4670000667301579
  0.4424375380430590  0.0801152616432930  0.1334101613372312
  0.3781642330638135  0.9396913665026929  0.5348057430245632
  0.5558450403328123  0.6134022227565197  0.1994852319186151
  0.0860577669559106  0.4492359708148470  0.8652333064200732
 
  0.00000000E+00  0.00000000E+00  0.00000000E+00
  0.00000000E+00  0.00000000E+00  0.00000000E+00
  0.00000000E+00  0.00000000E+00  0.00000000E+00
  0.00000000E+00  0.00000000E+00  0.00000000E+00
  0.00000000E+00  0.00000000E+00  0.00000000E+00
  0.00000000E+00  0.00000000E+00  0.00000000E+00
  0.00000000E+00  0.00000000E+00  0.00000000E+00
  0.00000000E+00  0.00000000E+00  0.00000000E+00
  0.00000000E+00  0.00000000E+00  0.00000000E+00
  0.00000000E+00  0.00000000E+00  0.00000000E+00
  0.00000000E+00  0.00000000E+00  0.00000000E+00
  0.00000000E+00  0.00000000E+00  0.00000000E+00
  0.00000000E+00  0.00000000E+00  0.00000000E+00
  0.00000000E+00  0.00000000E+00  0.00000000E+00
  0.00000000E+00  0.00000000E+00  0.00000000E+00
  0.00000000E+00  0.00000000E+00  0.00000000E+00
  0.00000000E+00  0.00000000E+00  0.00000000E+00
  0.00000000E+00  0.00000000E+00  0.00000000E+00
  0.00000000E+00  0.00000000E+00  0.00000000E+00
  0.00000000E+00  0.00000000E+00  0.00000000E+00
  0.00000000E+00  0.00000000E+00  0.00000000E+00
  0.00000000E+00  0.00000000E+00  0.00000000E+00
  0.00000000E+00  0.00000000E+00  0.00000000E+00
  0.00000000E+00  0.00000000E+00  0.00000000E+00
  0.00000000E+00  0.00000000E+00  0.00000000E+00
  0.00000000E+00  0.00000000E+00  0.00000000E+00
  0.00000000E+00  0.00000000E+00  0.00000000E+00
  0.00000000E+00  0.00000000E+00  0.00000000E+00
  0.00000000E+00  0.00000000E+00  0.00000000E+00
  0.00000000E+00  0.00000000E+00  0.00000000E+00
  0.00000000E+00  0.00000000E+00  0.00000000E+00
  0.00000000E+00  0.00000000E+00  0.00000000E+00
  0.00000000E+00  0.00000000E+00  0.00000000E+00
  0.00000000E+00  0.00000000E+00  0.00000000E+00
  0.00000000E+00  0.00000000E+00  0.00000000E+00
  0.00000000E+00  0.00000000E+00  0.00000000E+00
  0.00000000E+00  0.00000000E+00  0.00000000E+00
  0.00000000E+00  0.00000000E+00  0.00000000E+00
  0.00000000E+00  0.00000000E+00  0.00000000E+00
  0.00000000E+00  0.00000000E+00  0.00000000E+00
  0.00000000E+00  0.00000000E+00  0.00000000E+00
  0.00000000E+00  0.00000000E+00  0.00000000E+00
  0.00000000E+00  0.00000000E+00  0.00000000E+00
  0.00000000E+00  0.00000000E+00  0.00000000E+00
  0.00000000E+00  0.00000000E+00  0.00000000E+00
  0.00000000E+00  0.00000000E+00  0.00000000E+00
  0.00000000E+00  0.00000000E+00  0.00000000E+00
  0.00000000E+00  0.00000000E+00  0.00000000E+00
  0.00000000E+00  0.00000000E+00  0.00000000E+00
  0.00000000E+00  0.00000000E+00  0.00000000E+00
  0.00000000E+00  0.00000000E+00  0.00000000E+00
  0.00000000E+00  0.00000000E+00  0.00000000E+00
  0.00000000E+00  0.00000000E+00  0.00000000E+00
  0.00000000E+00  0.00000000E+00  0.00000000E+00
