Fe4 F14                                 
   1.00000000000000     
    -7.2649776540234496    0.0004531922195169    0.0001527979909703
    -3.6318214938927609   -5.3764258709017918   -3.1042948207797592
    -3.6319792741602055   -5.3760881979171486    3.1039233189418995
   F    Fe
    14     4
Direct
  0.7500178722320993  0.3956389548960280  0.1043316823274917
  0.2499999539396524  0.6036074747068814  0.8963551794426222
  0.9700406013127398  0.8062109665594754  0.2558760970969797
  0.0317424612390999  0.1939274827290066  0.7441905946390589
  0.4682069325619726  0.7558351159848639  0.3061383605100036
  0.5299887146776383  0.2441095279183143  0.6937841148887606
  0.0603803263148333  0.5822802807455546  0.6665517431444639
  0.3092703120581223  0.4178199094653857  0.3333664441414287
  0.5606076072378184  0.1659945683749861  0.0812149166771825
  0.8078396359514146  0.8341629940076259  0.9184418510880028
  0.9394049690886159  0.4187362801414451  0.3340680672396097
  0.6921594391615361  0.5815939102045943  0.6658245297303108
  0.4396459097871097  0.8334138285748336  0.9177184350423190
  0.1907504091630891  0.1666635879106831  0.0821586260421287
  0.4989495570359812  0.0000466440155638 -0.0000699348033255
  0.0010733817255207  0.5000404399434647  0.4999055752156807
  0.9991547298668654  0.5006650180459742  0.0008058667860306
  0.5007671866458836  0.4992530157753334  0.9993378507912442
 
  0.00000000E+00  0.00000000E+00  0.00000000E+00
  0.00000000E+00  0.00000000E+00  0.00000000E+00
  0.00000000E+00  0.00000000E+00  0.00000000E+00
  0.00000000E+00  0.00000000E+00  0.00000000E+00
  0.00000000E+00  0.00000000E+00  0.00000000E+00
  0.00000000E+00  0.00000000E+00  0.00000000E+00
  0.00000000E+00  0.00000000E+00  0.00000000E+00
  0.00000000E+00  0.00000000E+00  0.00000000E+00
  0.00000000E+00  0.00000000E+00  0.00000000E+00
  0.00000000E+00  0.00000000E+00  0.00000000E+00
  0.00000000E+00  0.00000000E+00  0.00000000E+00
  0.00000000E+00  0.00000000E+00  0.00000000E+00
  0.00000000E+00  0.00000000E+00  0.00000000E+00
  0.00000000E+00  0.00000000E+00  0.00000000E+00
  0.00000000E+00  0.00000000E+00  0.00000000E+00
  0.00000000E+00  0.00000000E+00  0.00000000E+00
  0.00000000E+00  0.00000000E+00  0.00000000E+00
  0.00000000E+00  0.00000000E+00  0.00000000E+00
