Ca3 Cr4 F14                             
   1.00000000000000     
    -7.5077963881476055   -0.0841587700025138    0.0032354162214330
    -3.8105846714770708   -5.3849885501420447   -3.9319029914619890
    -3.8099454411345537   -5.1368337208893786    3.6104033731638525
   Ca   Cr   F 
     3     4    14
Direct
  0.9993481784821137  0.0004336103991575 -0.0000078298475463
  0.0009168192305028  0.9991584475077679  0.4994142944398252
  0.4998691759502157  0.9995275824344466  0.4998339032685631
  0.5001723079166923  0.0006121076811788  0.9989719947193944
  0.9997872432318683  0.4996764343121576  0.5006372269825486
  0.0001887799085877  0.5000700355050484  0.0006510351449432
  0.4995665069190368  0.5004448886621208  0.0010224597103779
  0.7918228022441435  0.3856468231533680  0.0384218675820806
  0.2074695195978681  0.6149842461923983  0.9633593845903451
  0.8832748377267710  0.8759272705175648  0.3669265480659150
  0.1169563801330806  0.1227393062013061  0.6328849891183816
  0.3931639575485208  0.8809301265766278  0.3422958816912947
  0.6082582872970861  0.1190991894928657  0.6547277040614390
  0.0604252319526769  0.6025134511408574  0.6662166012937479
  0.3284850331709442  0.4037564636416802  0.3371863259752238
  0.6200929313728638  0.1408031886150137  0.1071865420697170
  0.8383654211877936  0.8674206744255960  0.9085293340297775
  0.9395866538049779  0.3971776802645746  0.3346982667110042
  0.6711632258262534  0.5953475040097962  0.6646517917890301
  0.3792266471803267  0.8601621692250506  0.8924386285322127
  0.1618600593177045  0.1335688000414228  0.0899530500717174
 
  0.00000000E+00  0.00000000E+00  0.00000000E+00
  0.00000000E+00  0.00000000E+00  0.00000000E+00
  0.00000000E+00  0.00000000E+00  0.00000000E+00
  0.00000000E+00  0.00000000E+00  0.00000000E+00
  0.00000000E+00  0.00000000E+00  0.00000000E+00
  0.00000000E+00  0.00000000E+00  0.00000000E+00
  0.00000000E+00  0.00000000E+00  0.00000000E+00
  0.00000000E+00  0.00000000E+00  0.00000000E+00
  0.00000000E+00  0.00000000E+00  0.00000000E+00
  0.00000000E+00  0.00000000E+00  0.00000000E+00
  0.00000000E+00  0.00000000E+00  0.00000000E+00
  0.00000000E+00  0.00000000E+00  0.00000000E+00
  0.00000000E+00  0.00000000E+00  0.00000000E+00
  0.00000000E+00  0.00000000E+00  0.00000000E+00
  0.00000000E+00  0.00000000E+00  0.00000000E+00
  0.00000000E+00  0.00000000E+00  0.00000000E+00
  0.00000000E+00  0.00000000E+00  0.00000000E+00
  0.00000000E+00  0.00000000E+00  0.00000000E+00
  0.00000000E+00  0.00000000E+00  0.00000000E+00
  0.00000000E+00  0.00000000E+00  0.00000000E+00
  0.00000000E+00  0.00000000E+00  0.00000000E+00
