Ni4 F12                                 
   1.00000000000000     
     5.0717752100646800   -0.0000212961053637   -0.0000065115217396
    -0.0000530706714989    7.0322436637022641   -0.0071567482614299
     0.0000145168759649    0.0151999750908520    4.8119545891162989
   Ni   F 
     4    12
Direct
 -0.0000611637946776  0.5012194307361628  0.4986762316576231
  0.4999254563394534  0.9987790144713002  0.0013718042659153
  0.0000236393142179  0.0002379994212201  0.5002040574916611
  0.5000332155640234  0.4997404484479581 -0.0002478226659007
  0.9688577230511763  0.2415424645299781  0.3741542370453063
  0.4688605907749372  0.2584634524978022  0.1258541450695163
  0.0314755471143574  0.7590747351047736  0.6260366238018751
  0.5314830874824840  0.7409469224342375  0.8739651205107805
  0.6801622250524750  0.5625588713217908  0.3086753551530777
  0.1801678698755076  0.9374345324104174  0.1913547941621139
  0.3036106144772999  0.0611026065711551  0.6722389224069529
  0.8036301805125617  0.4388999280954747  0.8277340018839320
  0.3191711706792213  0.4377953375267067  0.6907390339949876
  0.8191885653300210  0.0621960996116122  0.8092448675340791
  0.6967456958726786  0.9384821353761391  0.3289142935071960
  0.1967255823542696  0.5615260214432573  0.1710843341808908
 
  0.00000000E+00  0.00000000E+00  0.00000000E+00
  0.00000000E+00  0.00000000E+00  0.00000000E+00
  0.00000000E+00  0.00000000E+00  0.00000000E+00
  0.00000000E+00  0.00000000E+00  0.00000000E+00
  0.00000000E+00  0.00000000E+00  0.00000000E+00
  0.00000000E+00  0.00000000E+00  0.00000000E+00
  0.00000000E+00  0.00000000E+00  0.00000000E+00
  0.00000000E+00  0.00000000E+00  0.00000000E+00
  0.00000000E+00  0.00000000E+00  0.00000000E+00
  0.00000000E+00  0.00000000E+00  0.00000000E+00
  0.00000000E+00  0.00000000E+00  0.00000000E+00
  0.00000000E+00  0.00000000E+00  0.00000000E+00
  0.00000000E+00  0.00000000E+00  0.00000000E+00
  0.00000000E+00  0.00000000E+00  0.00000000E+00
  0.00000000E+00  0.00000000E+00  0.00000000E+00
  0.00000000E+00  0.00000000E+00  0.00000000E+00
