Ca3 Co4 F14                             
   1.00000000000000     
    -7.4551544094367523   -0.0015296739767402    0.0001072102743379
    -3.7273315433203207   -5.2015459952352963   -3.7214095091317239
    -3.7290768128048475   -5.1084135235216745    3.5079532848239037
   Ca   Co   F 
     3     4    14
Direct
  0.5000047516437004  0.4996427634441378  0.5002744836445154
  0.9999594638626098 -0.0001018255879141  0.5003934866096742
  0.4996591043838355  0.0001368372929568  0.5003457844444031
  0.5001975205787204  0.0000452666699338  0.0002996039687611
 -0.0001877838392393  0.5013144525606957  0.4985490871438867
 -0.0000285667762586  0.4998055485147830 -0.0001594999323137
  0.5002034233536794  0.5000434673656022  0.9998477832007476
  0.7162553609883188  0.4401959716380578  0.1272096856837008
  0.2838801002770662  0.5591736927279046  0.8729218935133483
  0.8831714107577543  0.8491013059793254  0.3845077613302978
  0.1167965506596490  0.1520195452720791  0.6143625144241673
  0.3886725081789747  0.8591704672676774  0.3636424305129569
  0.6113382249140276  0.1401507532339239  0.6372545300910514
  0.1036613176629081  0.5723689708853802  0.6575255947968652
  0.3339916497974059  0.4278363581883322  0.3420421761098607
  0.5651460044464195  0.1697187749543012  0.0921592568192981
  0.8269547828171369  0.8298399805269785  0.9086096273654720
  0.8961973401348514  0.4277413130779084  0.3420666610649881
  0.6663446150135757  0.5723077367875937  0.6575387423656188
  0.4348340119707204  0.8299595494251965  0.9084637286298496
  0.1729482091741512  0.1695290697751458  0.0921446682128363
 
  0.00000000E+00  0.00000000E+00  0.00000000E+00
  0.00000000E+00  0.00000000E+00  0.00000000E+00
  0.00000000E+00  0.00000000E+00  0.00000000E+00
  0.00000000E+00  0.00000000E+00  0.00000000E+00
  0.00000000E+00  0.00000000E+00  0.00000000E+00
  0.00000000E+00  0.00000000E+00  0.00000000E+00
  0.00000000E+00  0.00000000E+00  0.00000000E+00
  0.00000000E+00  0.00000000E+00  0.00000000E+00
  0.00000000E+00  0.00000000E+00  0.00000000E+00
  0.00000000E+00  0.00000000E+00  0.00000000E+00
  0.00000000E+00  0.00000000E+00  0.00000000E+00
  0.00000000E+00  0.00000000E+00  0.00000000E+00
  0.00000000E+00  0.00000000E+00  0.00000000E+00
  0.00000000E+00  0.00000000E+00  0.00000000E+00
  0.00000000E+00  0.00000000E+00  0.00000000E+00
  0.00000000E+00  0.00000000E+00  0.00000000E+00
  0.00000000E+00  0.00000000E+00  0.00000000E+00
  0.00000000E+00  0.00000000E+00  0.00000000E+00
  0.00000000E+00  0.00000000E+00  0.00000000E+00
  0.00000000E+00  0.00000000E+00  0.00000000E+00
  0.00000000E+00  0.00000000E+00  0.00000000E+00
