Ca3 Fe4 F14                             
   1.00000000000000     
    -7.3353331420976753   -0.0043947146865213    0.2265193784747530
    -3.5550999164148189   -5.2471126888744442   -3.6774505311813597
    -3.7879458778881778   -5.2610545952957208    3.9254136211499833
   Ca   Fe   F 
     3     4    14
Direct
  0.4999406674512409  0.4999612650806903  0.5002367426630691
  0.9997560595316193  0.0003053728029409  0.0000301824191905
  0.9998542478258572  0.9999558490700050  0.5001418974454748
  0.4999115878844642  0.9996261443350736  0.0005389672503786
  0.0004831091362558  0.4998911875103353  0.4988456327251817
  0.0000256096412650  0.5000669320333977  0.9998855787447037
  0.5001387173808212  0.5000474796836050  0.9999115704931408
  0.7487638999898397  0.3967200553389174  0.1046545485164622
  0.2512626815050418  0.6031990470221725  0.8955593956957698
  0.9319577519115070  0.8390194443179136  0.3512832218130994
  0.0680451731269536  0.1610540164220632  0.6486291325312400
  0.3786045661608256  0.8529010172212242  0.3372211633666098
  0.6212524149031931  0.1470528654699942  0.6631812205992095
  0.0988682429268897  0.5803121464455399  0.6656605621222448
  0.3273356833532127  0.4577716200964718  0.3290398302138477
  0.6109821353191186  0.1754508419194642  0.0414313714343359
  0.8435765210592402  0.8348899821157519  0.9237305360795417
  0.9009987734609536  0.4197554359210592  0.3341243368015352
  0.6731372491498050  0.5422421526294678  0.6707411722789303
  0.3887415837726079  0.8245843497578855  0.9587094667150307
  0.1563633245093093  0.1651927948060406  0.0764434700910040
 
  0.00000000E+00  0.00000000E+00  0.00000000E+00
  0.00000000E+00  0.00000000E+00  0.00000000E+00
  0.00000000E+00  0.00000000E+00  0.00000000E+00
  0.00000000E+00  0.00000000E+00  0.00000000E+00
  0.00000000E+00  0.00000000E+00  0.00000000E+00
  0.00000000E+00  0.00000000E+00  0.00000000E+00
  0.00000000E+00  0.00000000E+00  0.00000000E+00
  0.00000000E+00  0.00000000E+00  0.00000000E+00
  0.00000000E+00  0.00000000E+00  0.00000000E+00
  0.00000000E+00  0.00000000E+00  0.00000000E+00
  0.00000000E+00  0.00000000E+00  0.00000000E+00
  0.00000000E+00  0.00000000E+00  0.00000000E+00
  0.00000000E+00  0.00000000E+00  0.00000000E+00
  0.00000000E+00  0.00000000E+00  0.00000000E+00
  0.00000000E+00  0.00000000E+00  0.00000000E+00
  0.00000000E+00  0.00000000E+00  0.00000000E+00
  0.00000000E+00  0.00000000E+00  0.00000000E+00
  0.00000000E+00  0.00000000E+00  0.00000000E+00
  0.00000000E+00  0.00000000E+00  0.00000000E+00
  0.00000000E+00  0.00000000E+00  0.00000000E+00
  0.00000000E+00  0.00000000E+00  0.00000000E+00
