Titanium(II) fluoride                   
   1.00000000000000     
     5.2207186736724074    0.0000005769665164    0.0000027910015221
     0.0000020080888509    5.2208371750347036    0.0000034998815938
     0.0000001217547938   -0.0000012706153380    5.2209483274178545
   Ti   F 
     4     8
Direct
  0.9999804690005344 -0.0000000357857008 -0.0000000315944076
  0.9999804695662602  0.5000000165945040  0.5000000046998635
  0.4999804752098678  0.0000000462065245  0.4999999784142724
  0.4999804693269315  0.5000000375409855 -0.0000000042894938
  0.2500100546413667  0.2500001433662646  0.2500003999411355
  0.7500094774346311  0.7499998283413998  0.7499996331732075
  0.7500092195587428  0.7500002026611509  0.2499996995962335
  0.2500103186108429  0.2499997973200616  0.7500003120859996
  0.7500103893784900  0.2499998879828863  0.7500000467007174
  0.2500091425399652  0.7500000773184687  0.2499999509002934
  0.2500095367900032  0.7499998557137897  0.7500000196061607
  0.7500099779423501  0.2500001427396650  0.2499999907660179
 
  0.00000000E+00  0.00000000E+00  0.00000000E+00
  0.00000000E+00  0.00000000E+00  0.00000000E+00
  0.00000000E+00  0.00000000E+00  0.00000000E+00
  0.00000000E+00  0.00000000E+00  0.00000000E+00
  0.00000000E+00  0.00000000E+00  0.00000000E+00
  0.00000000E+00  0.00000000E+00  0.00000000E+00
  0.00000000E+00  0.00000000E+00  0.00000000E+00
  0.00000000E+00  0.00000000E+00  0.00000000E+00
  0.00000000E+00  0.00000000E+00  0.00000000E+00
  0.00000000E+00  0.00000000E+00  0.00000000E+00
  0.00000000E+00  0.00000000E+00  0.00000000E+00
  0.00000000E+00  0.00000000E+00  0.00000000E+00
