Ca2 Fe4 F12                             
   1.00000000000000     
     5.6567405716607571    0.0000978462104364    0.0000521276345698
     0.0001238737174958    7.9561201352441815    0.0002527412098907
     0.0000575463518074    0.0001573521028782    5.4480776054979883
   Ca   Fe   F 
     2     4    12
Direct
  0.4328646583483338  0.7500091662869083  0.4875182890349785
  0.9328670470684156  0.7499914965385284  0.0124719434530155
  0.9949244345572991  0.0208401494152173  0.4995823019844649
  0.4949384452377369  0.4791677883275707  0.0004206275287686
  0.9948752555205741  0.4791167137580210  0.4995762367509454
  0.4948504117972710  0.0208789173825402  0.0004167802119684
  0.9423002017619613  0.2499884263976351  0.3899480916959291
  0.4422858313958354  0.2500172063677980  0.1100608186638912
  0.0263122674458646  0.7500097985078853  0.5923834515731502
  0.5263121977766634  0.7499909224085480  0.9076043726974311
  0.8199147686638268  0.0055043651921764  0.8295249659753303
  0.3199143026952483  0.4945009276483985  0.6704873436294738
  0.2073044551078632  0.5779776705086109  0.2041590783941575
  0.7072850641728482  0.9220166983399944  0.2958554643193793
  0.2072402101054217  0.9220197804587642  0.2041163357071095
  0.7072628862015238  0.5779676150450059  0.2958820054819010
  0.8199765859658991  0.4944702211461728  0.8295433744361237
  0.3199709761774181  0.0055321362702244  0.6704485184619894
 
  0.00000000E+00  0.00000000E+00  0.00000000E+00
  0.00000000E+00  0.00000000E+00  0.00000000E+00
  0.00000000E+00  0.00000000E+00  0.00000000E+00
  0.00000000E+00  0.00000000E+00  0.00000000E+00
  0.00000000E+00  0.00000000E+00  0.00000000E+00
  0.00000000E+00  0.00000000E+00  0.00000000E+00
  0.00000000E+00  0.00000000E+00  0.00000000E+00
  0.00000000E+00  0.00000000E+00  0.00000000E+00
  0.00000000E+00  0.00000000E+00  0.00000000E+00
  0.00000000E+00  0.00000000E+00  0.00000000E+00
  0.00000000E+00  0.00000000E+00  0.00000000E+00
  0.00000000E+00  0.00000000E+00  0.00000000E+00
  0.00000000E+00  0.00000000E+00  0.00000000E+00
  0.00000000E+00  0.00000000E+00  0.00000000E+00
  0.00000000E+00  0.00000000E+00  0.00000000E+00
  0.00000000E+00  0.00000000E+00  0.00000000E+00
  0.00000000E+00  0.00000000E+00  0.00000000E+00
  0.00000000E+00  0.00000000E+00  0.00000000E+00
