Ca8 V12 F42                             
   1.00000000000000     
     7.4949130000000004   -0.0328720000000000    0.0595570000000000
    -3.7814329999999998    6.5314550000000002   -0.1010360000000000
    -0.4669760000000000    0.4825470000000000   18.3537280000000003
   Ca   V    F 
     8    12    42
Direct
  0.8526865203029645  0.9180811603364120  0.7644256230216322
  0.4765127197113318  0.7877090259373738  0.5905090494336241
  0.8273621536173237  0.4357951786658544  0.2581401387556038
  0.6459265279740817  0.1278684807840418  0.9164792373111271
  0.7996843839692067  0.9231234536656818  0.2582999308196108
  0.1670035278796448  0.6011032378520710  0.9295834116064781
  0.9768908864281243  0.8017242515483969  0.0774845837640064
  0.1395508299354072  0.0986427246933974  0.4304702578711749
  0.2995416986855060  0.9424770676495872  0.2560526239204482
 -0.0387015637036166  0.2668948912424337  0.6001895877338348
  0.4817343816215172  0.3063475216096708  0.5790486160152766
  0.3400228792502839  0.9519758590383416  0.7457172301548829
  0.9753463633443007  0.2830085343275072  0.1001690973565902
  0.6435901899926226  0.6000538883422507  0.4225696372422292
  0.4729845964189266  0.7848953646180957  0.0969059123508951
  0.1426020291668192  0.6002060555140579  0.4290229591738841
  0.3406150791039272  0.4482754952529175  0.7552103142258695
  0.8362755837626925  0.4427105123891986  0.7445213144068753
  0.6421992748971596  0.0986374796977754  0.4205134737499942
  0.4780119672476892  0.2822803861897007  0.0953435531930928
  0.7369293327810158  0.1054064020744812  0.5244022620416026
  0.8853333054663935  0.4373515649567646  0.8519161640782809
  0.4583970862041328  0.2339128456548155  0.2060661409726457
  0.1500589625254656  0.6769495973746275  0.3181771303223004
  0.4843369688067125  0.8199615745132450 -0.0119610361759894
  0.4015353026686207  0.4521864911007556  0.6491440273482534
  0.8046670044746675 -0.0157663974901826  0.8693327275313294
  0.9943598687419849  0.7832519051435486  0.2037783239490130
  0.1663270992005172  0.1843441819448583  0.5480327363753874
  1.0080798015537031  0.7553563073707222  0.9686220547942108
  0.7976968287213353 -0.0242583199683373  0.6473322823551894
  0.1333356149787757  0.0479299458325081  0.3122248795562957
  0.5306757191140463  0.2804432669918963 -0.0079190138959371
  0.5871795345255009  0.0876154343269809  0.3090399256765580
  0.7680583222557722  0.3877257432910320  0.6311682478159503
  0.2963716131336499  0.4662992842043013  0.8570502581534176
  0.1424870200598247  0.5417836093639636  0.5433515590006203
  0.4639661968800380  0.8081719091797809  0.2091635907111569
  0.7863809646590666  0.4000544984135138  0.1233022860512823
  0.5220188604235861  0.2792832207287516  0.4552783054960385
  0.6430265601720700  0.1430761027320581  0.7613503965088086
  0.4381228085103559  0.7492004769173179  0.7242437928731370
  0.3215884254101332  0.4654688947902759  0.4119580357163297
  0.1659252529924982  0.5896713165384924  0.0825437863435703
  0.9663890379946231  0.2554362199953485  0.2153010423334062
  0.5986712935250880  0.6040222583344957  0.5316477462765459
  0.3368459650702242  0.8958258280708657  0.8533134245309936
  0.3832449188936777  0.0204572424999476  0.6323356212909290
  0.6867127939300524  0.6011177715166840  0.3111969348042017
  0.9356077925477038  0.2905597488528738 -0.0083592789779903
  0.1706384219131296  0.1757552834015647  0.0835934823720469
  0.7686943581200574  0.9183570373042390  0.3939670335714239
  0.0347623039288425  0.7485447323652004  0.7302957356662427
  0.2210837619493367  0.1390185705863669  0.7624261734074695
  0.9624043633057828  0.7344956103980798  0.4429815913489984
  0.7865693640834771 -0.0307989370830040  0.1175419873854923
  0.0497907546479491  0.3587992922511737  0.7131324559518648
  0.5811958805157322  0.5862708572765284  0.0978000890771918
  0.3744472411006813  0.8743297955534685  0.4680901583710416
  0.3596661910368346 -0.0236901590095870  0.0973596415294043
  0.6470207564046112  0.5556913789809224  0.7691855877906296
  0.9144590151421200  0.3329629694250383  0.3823698167964303
 
             NaN             NaN             NaN
             NaN             NaN             NaN
             NaN             NaN             NaN
             NaN             NaN             NaN
             NaN             NaN             NaN
             NaN             NaN             NaN
             NaN             NaN             NaN
             NaN             NaN             NaN
             NaN             NaN             NaN
             NaN             NaN             NaN
             NaN             NaN             NaN
             NaN             NaN             NaN
             NaN             NaN             NaN
             NaN             NaN             NaN
             NaN             NaN             NaN
             NaN             NaN             NaN
             NaN             NaN             NaN
             NaN             NaN             NaN
             NaN             NaN             NaN
             NaN             NaN             NaN
             NaN             NaN             NaN
             NaN             NaN             NaN
             NaN             NaN             NaN
             NaN             NaN             NaN
             NaN             NaN             NaN
             NaN             NaN             NaN
             NaN             NaN             NaN
             NaN             NaN             NaN
             NaN             NaN             NaN
             NaN             NaN             NaN
             NaN             NaN             NaN
             NaN             NaN             NaN
             NaN             NaN             NaN
             NaN             NaN             NaN
             NaN             NaN             NaN
             NaN             NaN             NaN
             NaN             NaN             NaN
             NaN             NaN             NaN
             NaN             NaN             NaN
             NaN             NaN             NaN
             NaN             NaN             NaN
             NaN             NaN             NaN
             NaN             NaN             NaN
             NaN             NaN             NaN
             NaN             NaN             NaN
             NaN             NaN             NaN
             NaN             NaN             NaN
             NaN             NaN             NaN
             NaN             NaN             NaN
             NaN             NaN             NaN
             NaN             NaN             NaN
             NaN             NaN             NaN
             NaN             NaN             NaN
             NaN             NaN             NaN
             NaN             NaN             NaN
             NaN             NaN             NaN
             NaN             NaN             NaN
             NaN             NaN             NaN
             NaN             NaN             NaN
             NaN             NaN             NaN
             NaN             NaN             NaN
             NaN             NaN             NaN
