Ca8 V12 F42                             
   1.00000000000000     
     7.4949130000000004   -0.0328720000000000    0.0595570000000000
    -3.7814329999999998    6.5314550000000002   -0.1010360000000000
    -0.4669760000000000    0.4825470000000000   18.3537280000000003
   Ca   V    F 
     8    12    42
Direct
  0.8696222447132191 -0.0059108876061539  0.7900153348660237
  0.4926635499063051  0.8113155156775564  0.6059548697517161
  0.8070369327811909  0.4628560312775322  0.2743478538699712
  0.6409034764372322  0.1678997463740331  0.9445980604586898
  0.7714573023366312  0.9341236244423244  0.2772754324770623
  0.1639806615148775  0.6464465204136950  0.9593018034805760
  0.9930922843958855  0.8903297567595470  0.0881631870551118
  0.1453090327000907  0.1931025699300479  0.4281825160595487
  0.2865049610150424  0.9590449651031899  0.2742751736560221
  1.0087564270299012  0.2825382612752043  0.6130216413289465
  0.5871951566958141  0.3662462704764770  0.7218997331174846
  0.3461852208328960 -0.0138009668747633  0.7809250195520224
  0.9704258861940417  0.3333078837148473  0.1173759880622337
  0.6474826323062745  0.6169890033681253  0.4531964963316096
  0.4687225786151493  0.8290448017152645  0.1113647712338091
  0.1428593554923956  0.6303784932470916  0.4474543613267159
  0.3444634066878719  0.4919189043530728  0.7893362809697423
  0.8899896932264785  0.5091747333466704  0.7849478626005328
  0.6409331989586839  0.1227997023488601  0.4477766574375956
  0.4840858009424052  0.3363047301627745  0.1120622282505946
  0.7335752921245914  0.1641319136976281  0.5543396242602878
  0.8632171997746234  0.4967832547643508  0.8887743623632337
  0.4732528090993465  0.2438448725578760  0.2223982867286190
  0.1279302156831144  0.6900603134161456  0.3346885412690915
  0.4960538668975721  0.8446033239240494  0.0035876923395185
  0.3350740340867407  0.4356646150686406  0.6798859390596502
  0.8150003021099597  0.0357959051764394  0.8974151452278170
 -0.0101497517756018  0.8138245457866061  0.2150482910398094
  0.1417358835590181  0.1710424525076128  0.5517505939429167
 -0.0128343217610831  0.7993263403700124 -0.0174882368069486
  0.8115317281553620  0.0078912569455039  0.6686219654228185
  0.1066097781805195  0.0673136928252392  0.3199214099175522
  0.5364404901126800  0.3626942260946621  0.0075613890668388
  0.5678565417808353  0.0752791632534351  0.3367946806208444
  0.8677371512089539  0.4408745312672416  0.6725793800173904
  0.3271122080128439  0.5319824862384915  0.8914845904513615
  0.1702287757545009  0.5510325168738822  0.5556728336415897
  0.4599737837904418  0.8589062400381102  0.2217827942281324
  0.7874262231149757  0.4528838204461157  0.1331661798990277
  0.5044159733725693  0.2961017246594712  0.4447835948131973
  0.6578929270004441  0.1882836855995610  0.8012786450168583
  0.4362936723490405  0.7850416004815257  0.7524208520612797
  0.3363618326277066  0.5195341491478260  0.4202128659320865
  0.1626158215710061  0.6393322920775893  0.0947926753091510
  0.9234885989063369  0.2658729793436909  0.2310337930916735
  0.5885409073723666  0.6040243471804034  0.5599667023839229
  0.3279082708753103  0.9425176285182044  0.8869747618772035
  0.4389489929993086  0.0869572826396730  0.6750587771980557
  0.6905129577605942  0.6356054635304318  0.3375514847223652
  0.9433665470000150  0.3277128808429128  0.0089365722742790
  0.1787597796857416  0.2382347389531545  0.1083029837698654
  0.7693693743335438  0.9394526158805336  0.4352878897341075
  0.0462719957480591  0.8060812529860705  0.7603625515234264
  0.2365102445501321  0.1812616247836878  0.8016767957486645
  0.9598662587297435  0.7451533537612902  0.4668018732177671
  0.7807374501486609  0.0202437347484874  0.1179767636819671
  0.0426489798826662  0.3651906800936692  0.7786989996249645
  0.5651908289616417  0.6268970074864576  0.1428226363162510
  0.3789765572544411  0.8916291084473790  0.4903119176407769
  0.3641779915292628  0.0306242801323045  0.0896291752616145
  0.6659783852576074  0.6191081716756935  0.7825614876553989
  0.9179277567350077  0.3470556239289972  0.4053539134510074
 
             NaN             NaN             NaN
             NaN             NaN             NaN
             NaN             NaN             NaN
             NaN             NaN             NaN
             NaN             NaN             NaN
             NaN             NaN             NaN
             NaN             NaN             NaN
             NaN             NaN             NaN
             NaN             NaN             NaN
             NaN             NaN             NaN
             NaN             NaN             NaN
             NaN             NaN             NaN
             NaN             NaN             NaN
             NaN             NaN             NaN
             NaN             NaN             NaN
             NaN             NaN             NaN
             NaN             NaN             NaN
             NaN             NaN             NaN
             NaN             NaN             NaN
             NaN             NaN             NaN
             NaN             NaN             NaN
             NaN             NaN             NaN
             NaN             NaN             NaN
             NaN             NaN             NaN
             NaN             NaN             NaN
             NaN             NaN             NaN
             NaN             NaN             NaN
             NaN             NaN             NaN
             NaN             NaN             NaN
             NaN             NaN             NaN
             NaN             NaN             NaN
             NaN             NaN             NaN
             NaN             NaN             NaN
             NaN             NaN             NaN
             NaN             NaN             NaN
             NaN             NaN             NaN
             NaN             NaN             NaN
             NaN             NaN             NaN
             NaN             NaN             NaN
             NaN             NaN             NaN
             NaN             NaN             NaN
             NaN             NaN             NaN
             NaN             NaN             NaN
             NaN             NaN             NaN
             NaN             NaN             NaN
             NaN             NaN             NaN
             NaN             NaN             NaN
             NaN             NaN             NaN
             NaN             NaN             NaN
             NaN             NaN             NaN
             NaN             NaN             NaN
             NaN             NaN             NaN
             NaN             NaN             NaN
             NaN             NaN             NaN
             NaN             NaN             NaN
             NaN             NaN             NaN
             NaN             NaN             NaN
             NaN             NaN             NaN
             NaN             NaN             NaN
             NaN             NaN             NaN
             NaN             NaN             NaN
             NaN             NaN             NaN
