Ca2 Cr2 F10                             
   1.00000000000000     
     4.0640079913573874    3.2297125539548444   -1.9345026815240944
     4.0640079852391233   -3.2297125642307316   -1.9345026845920990
    -0.0610725108238184   -0.0000000094815565   -7.5422564888804908
   Ca   Cr   F 
     2     2    10
Direct
  0.4548201124149003  0.5451811770047499  0.2499803564916974
  0.5451811460864135  0.4548201414222319  0.7499803593032794
  0.0000317293838279  0.9998913708227306  0.5000154834933923
  0.9998913008450216  0.0000314306579838  0.0000157373531948
  0.0760214692487438  0.9239889482204973  0.2500260432082229
  0.9239889155240419  0.0760215049585398  0.7500260384872774
  0.3061406747170139  0.7182378226153787  0.5289437171439033
  0.2819196138355551  0.6937373906941033  0.9710429434238250
  0.6937373553680715  0.2819196293146575  0.4710429656762258
  0.7182378043614008  0.3061407098699291  0.0289436969949790
  0.7917253643125193  0.7483652888741901  0.6194747309230593
  0.2515557190072997  0.2083835097417506  0.8805165985006980
  0.2083834245297709  0.2515556341149860  0.3805166508643438
  0.7483653703654127  0.7917254416882713  0.1194746781359015
 
  0.00000000E+00  0.00000000E+00  0.00000000E+00
  0.00000000E+00  0.00000000E+00  0.00000000E+00
  0.00000000E+00  0.00000000E+00  0.00000000E+00
  0.00000000E+00  0.00000000E+00  0.00000000E+00
  0.00000000E+00  0.00000000E+00  0.00000000E+00
  0.00000000E+00  0.00000000E+00  0.00000000E+00
  0.00000000E+00  0.00000000E+00  0.00000000E+00
  0.00000000E+00  0.00000000E+00  0.00000000E+00
  0.00000000E+00  0.00000000E+00  0.00000000E+00
  0.00000000E+00  0.00000000E+00  0.00000000E+00
  0.00000000E+00  0.00000000E+00  0.00000000E+00
  0.00000000E+00  0.00000000E+00  0.00000000E+00
  0.00000000E+00  0.00000000E+00  0.00000000E+00
  0.00000000E+00  0.00000000E+00  0.00000000E+00
