Ca6 Cr12 F42                            
   1.00000000000000     
     7.3364133225426924    0.1876103304262425   -0.0118723331644673
    -3.8278174879333005    6.2576228262382942    0.0581105701956066
     0.0513280809899837   -0.1152073110519383   17.7881422182922933
   Ca   Cr   F 
     6    12    42
Direct
  0.9654723600201791  0.1215686467475834  0.3322119797922980
  0.8802421179864695  0.8450251491328657  0.6659225546842649
  0.1548070212021031  0.0333088542150648  0.9991929467207825
  0.7379213662327118  0.0420025928807988  0.8409057960779691
  0.9574261017717660  0.6956663793292961  0.1742631917798576
  0.3033164141012392  0.2614288739699049  0.5068866076675107
  0.3423493859640416  0.9632531405399760  0.3335266188094650
  0.0378474406205811  0.3795951374642144  0.6672789260790921
  0.6195037356348649  0.6573870200253893  0.0002800730472643
  0.2999152465831116  0.0212937037047070  0.8363561867451708
  0.9796106370229722  0.2797166978897607  0.1694047272031014
  0.7216802483246738  0.7000172528258233  0.5036461763241533
  0.4836269662275257  0.7807976554336520  0.1803250194709420
  0.2201169914736880  0.7025857247343765  0.5139204419403001
  0.2974090096118687  0.5168940612938187  0.8467178259855004
  0.8173518558209310  0.5488620664322070  0.8223737922590857
  0.7311618378097435  0.1806512551944124  0.4888651527152348
  0.4505891299866747  0.2684780310331760  0.1552543556886405
  0.8611769577853963  0.3486326056842302  0.5839924297425156
  0.6512188521528941  0.5102688249568601  0.9174605189803700
  0.4884471150580225  0.1413754232910733  0.2503237715666771
  0.1869319702996464  0.7602645365835059  0.4096276599353956
  0.5730417819998195  0.8139618478167776  0.0759904296245679
  0.2406714662135840  0.4251288935118822  0.7428095641041352
  0.7964667201001063  0.9218670420813311  0.9489054310446576
  0.0776660163754315  0.8743212230698774  0.2823301217590952
  0.1259100039961112  0.2036286103924496  0.6155007952445430
  0.8783620256390918  0.7184681740947667  0.0503263583267994
  0.8401765753478827  0.1196617323785603  0.7171786435918435
  0.2801766783519568  0.1608488085400452  0.3832717225493241
  0.4488058500964129  0.3822696395996630  0.0496479325533912
  0.6168712619255459  0.0676508254861261  0.3825436714609936
  0.9339653104331731  0.5503329465515492  0.7168771570086605
  0.3702245902258738  0.6170665791125316  0.9504705774717479
  0.2471321313715293  0.6299713825720303  0.6177769822592225
  0.3831720613360687  0.7540405044752561  0.2840797744907206
  0.7759893005744161  0.3376121155346183  0.1272517758609908
  0.6624709155964865  0.4383851308630469  0.4610234437117455
  0.5621481160960187  0.2241282934365572  0.7940996705422094
  0.3862978836785871  0.8145935454606530  0.8125424630341698
  0.4291749250901660  0.6144689169134878  0.4797210913641123
  0.1863322298719723  0.5724242023311632  0.1457932775377060
  0.9395516961843242  0.3872508253713463  0.2617719214126097
  0.6145018384621821  0.5529071733930593  0.5960719192171098
  0.4460514043358330  0.0597609369426806  0.9288254887866501
  0.1445767751445217  0.9729842289719741  0.7473412191078452
  0.8289995498693798  0.8576647752951061  0.4147076182521445
  0.0268108560620846  0.1711493736007768  0.0803766065108888
  0.1878823251957016  0.2506401472113140  0.2238775549547114
  0.7497233524076705  0.9372307541864870  0.5580096487539663
  0.0616238121227539  0.8116394253235697  0.8903310878600195
  0.2081054186491116  0.2134723620670442  0.8764503577965002
  0.0057721527298114  0.7915001812093863  0.5433983494474006
  0.7865003355423497  0.9953562595477052  0.2097126616050176
  0.9483074481691816  0.3852345273167259  0.8589065546575085
  0.6139149014331338  0.5630489284869142  0.1919164276967038
  0.4369324323654382  0.0513798881142549  0.5253198795416552
  0.2600316972300476  0.9769288980261877  0.1171513970498808
  0.7150941545030918  0.7379615119445191  0.7838035375751602
  0.0224412485820409  0.2839858204058672  0.4500501250180022
 
  0.00000000E+00  0.00000000E+00  0.00000000E+00
  0.00000000E+00  0.00000000E+00  0.00000000E+00
  0.00000000E+00  0.00000000E+00  0.00000000E+00
  0.00000000E+00  0.00000000E+00  0.00000000E+00
  0.00000000E+00  0.00000000E+00  0.00000000E+00
  0.00000000E+00  0.00000000E+00  0.00000000E+00
  0.00000000E+00  0.00000000E+00  0.00000000E+00
  0.00000000E+00  0.00000000E+00  0.00000000E+00
  0.00000000E+00  0.00000000E+00  0.00000000E+00
  0.00000000E+00  0.00000000E+00  0.00000000E+00
  0.00000000E+00  0.00000000E+00  0.00000000E+00
  0.00000000E+00  0.00000000E+00  0.00000000E+00
  0.00000000E+00  0.00000000E+00  0.00000000E+00
  0.00000000E+00  0.00000000E+00  0.00000000E+00
  0.00000000E+00  0.00000000E+00  0.00000000E+00
  0.00000000E+00  0.00000000E+00  0.00000000E+00
  0.00000000E+00  0.00000000E+00  0.00000000E+00
  0.00000000E+00  0.00000000E+00  0.00000000E+00
  0.00000000E+00  0.00000000E+00  0.00000000E+00
  0.00000000E+00  0.00000000E+00  0.00000000E+00
  0.00000000E+00  0.00000000E+00  0.00000000E+00
  0.00000000E+00  0.00000000E+00  0.00000000E+00
  0.00000000E+00  0.00000000E+00  0.00000000E+00
  0.00000000E+00  0.00000000E+00  0.00000000E+00
  0.00000000E+00  0.00000000E+00  0.00000000E+00
  0.00000000E+00  0.00000000E+00  0.00000000E+00
  0.00000000E+00  0.00000000E+00  0.00000000E+00
  0.00000000E+00  0.00000000E+00  0.00000000E+00
  0.00000000E+00  0.00000000E+00  0.00000000E+00
  0.00000000E+00  0.00000000E+00  0.00000000E+00
  0.00000000E+00  0.00000000E+00  0.00000000E+00
  0.00000000E+00  0.00000000E+00  0.00000000E+00
  0.00000000E+00  0.00000000E+00  0.00000000E+00
  0.00000000E+00  0.00000000E+00  0.00000000E+00
  0.00000000E+00  0.00000000E+00  0.00000000E+00
  0.00000000E+00  0.00000000E+00  0.00000000E+00
  0.00000000E+00  0.00000000E+00  0.00000000E+00
  0.00000000E+00  0.00000000E+00  0.00000000E+00
  0.00000000E+00  0.00000000E+00  0.00000000E+00
  0.00000000E+00  0.00000000E+00  0.00000000E+00
  0.00000000E+00  0.00000000E+00  0.00000000E+00
  0.00000000E+00  0.00000000E+00  0.00000000E+00
  0.00000000E+00  0.00000000E+00  0.00000000E+00
  0.00000000E+00  0.00000000E+00  0.00000000E+00
  0.00000000E+00  0.00000000E+00  0.00000000E+00
  0.00000000E+00  0.00000000E+00  0.00000000E+00
  0.00000000E+00  0.00000000E+00  0.00000000E+00
  0.00000000E+00  0.00000000E+00  0.00000000E+00
  0.00000000E+00  0.00000000E+00  0.00000000E+00
  0.00000000E+00  0.00000000E+00  0.00000000E+00
  0.00000000E+00  0.00000000E+00  0.00000000E+00
  0.00000000E+00  0.00000000E+00  0.00000000E+00
  0.00000000E+00  0.00000000E+00  0.00000000E+00
  0.00000000E+00  0.00000000E+00  0.00000000E+00
  0.00000000E+00  0.00000000E+00  0.00000000E+00
  0.00000000E+00  0.00000000E+00  0.00000000E+00
  0.00000000E+00  0.00000000E+00  0.00000000E+00
  0.00000000E+00  0.00000000E+00  0.00000000E+00
  0.00000000E+00  0.00000000E+00  0.00000000E+00
  0.00000000E+00  0.00000000E+00  0.00000000E+00
