Co12 F42                                
   1.00000000000000     
     7.1209332301935602    0.0038726009415740    0.0158685982229916
    -3.5546205488048979    6.1621807393967378   -0.0002570249554492
     0.0014662743666549    0.0050775940976143   17.0741791692340072
   Co   F 
    12    42
Direct
  0.2968503816914492  0.0010904384115236  0.3335521161213890
  0.7031285749097975  0.7039003695946562  0.9986263753528277
  0.0000936664076576  0.2945720760073982  0.6663527587412972
  0.3499589903996707  0.9955613035424875  0.8332619646516761
  0.6503800707221501  0.6528498760954946  0.5003447078491519
  0.0002142537347609  0.3552567665456081  0.1673537865778485
  0.6453970587747193  0.1521847588650900  0.5015776032312615
  0.5005557846491300  0.3559505309790154  0.1677517528175230
  0.8502112421358632  0.4919071923129650  0.8343059718499362
  0.3539245754428535  0.4985989674167897  0.8317992396306053
  0.1492090648184217  0.6474214013441042  0.4992509085185119
  0.4998478254826821  0.8547522013654927  0.1655625549220474
  0.5709889720944901  0.8282135678802121  0.0631571742934653
  0.2564519845958273  0.4258262841701352  0.7297792317595651
  0.1739081832786482  0.7444812668264120  0.3969274785204107
  0.4284852417673974  0.2583295383687414  0.2699366892540098
  0.8260886387648441  0.5677001860339175  0.9361503667696098
  0.7431877990758622  0.1724911392778594  0.6034195192287655
  0.9083672106748324  0.0220333218368793  0.7135863157361868
  0.1124264072376917  0.0870997712082016  0.3794421142284179
  0.9741089239862077  0.8811871464138861  0.0479731577065934
  0.0918554650106600  0.1168589155048778  0.6182221423718701
  0.0269882626673095  0.9062230108435259  0.2839179296440122
  0.8846260472988021  0.9727295616430141  0.9522472542183493
  0.1318912940915098  0.5431412844611785  0.6023108163568622
  0.4155677442596115  0.8723714339307875  0.2692492293420656
  0.4556202420179787  0.5868681015450647  0.9347884731948142
  0.8666563323092902  0.4065272129304134  0.7311299932870057
  0.5415559496879183  0.1361382092360159  0.3987959136284189
  0.5883388311797830  0.4588417126619149  0.0642630209468535
  0.3595697012849541  0.5606560864939070  0.4736014577688010
  0.2018961609430079  0.6458207165966314  0.1413182446327426
  0.4416058702305747  0.7960723241734726  0.8062854875483083
  0.6402766680897400  0.1951418141681387  0.8602989896897597
  0.5592237170781189  0.3619077371953949  0.5280182828362499
  0.7980054792407856  0.4427271556887931  0.1933858471404832
  0.6999419590362024  0.6041938101862456  0.4043212133307819
  0.9070924610001967  0.3074276262680868  0.0707893841075347
  0.3985044011830041  0.0928912193352787  0.7370637535919045
  0.2998253234633523  0.8983390034597107  0.9294433852886570
  0.6023335065315791  0.7022736182709437  0.5965452598189458
  0.0944162614068134  0.4003985570432249  0.2636873722771469
  0.9368862223508998  0.7305057120730680  0.5271312821979848
  0.7934995737141790  0.0662385163749661  0.1932771725073508
  0.2715948015234915  0.2044851153279481  0.8602860248871522
  0.0636404847747727  0.7866824623884696  0.8062024232484930
  0.7274141720048632  0.9393581762246654  0.4730277099565114
  0.2078144311017169  0.2743237079352028  0.1402487161776733
  0.6357808791164601  0.5600016044816840  0.8040854460370852
  0.9280757231909789  0.3664002395499679  0.4713894061079742
  0.4361870176677627  0.0738965713106694  0.1377603105866569
  0.3635748969774681  0.9300772823383809  0.5293928086658397
  0.5652362589574622  0.6384438064019164  0.1957155294824062
  0.0707190099638311  0.4306295894595493  0.8617879313621657
 
  0.00000000E+00  0.00000000E+00  0.00000000E+00
  0.00000000E+00  0.00000000E+00  0.00000000E+00
  0.00000000E+00  0.00000000E+00  0.00000000E+00
  0.00000000E+00  0.00000000E+00  0.00000000E+00
  0.00000000E+00  0.00000000E+00  0.00000000E+00
  0.00000000E+00  0.00000000E+00  0.00000000E+00
  0.00000000E+00  0.00000000E+00  0.00000000E+00
  0.00000000E+00  0.00000000E+00  0.00000000E+00
  0.00000000E+00  0.00000000E+00  0.00000000E+00
  0.00000000E+00  0.00000000E+00  0.00000000E+00
  0.00000000E+00  0.00000000E+00  0.00000000E+00
  0.00000000E+00  0.00000000E+00  0.00000000E+00
  0.00000000E+00  0.00000000E+00  0.00000000E+00
  0.00000000E+00  0.00000000E+00  0.00000000E+00
  0.00000000E+00  0.00000000E+00  0.00000000E+00
  0.00000000E+00  0.00000000E+00  0.00000000E+00
  0.00000000E+00  0.00000000E+00  0.00000000E+00
  0.00000000E+00  0.00000000E+00  0.00000000E+00
  0.00000000E+00  0.00000000E+00  0.00000000E+00
  0.00000000E+00  0.00000000E+00  0.00000000E+00
  0.00000000E+00  0.00000000E+00  0.00000000E+00
  0.00000000E+00  0.00000000E+00  0.00000000E+00
  0.00000000E+00  0.00000000E+00  0.00000000E+00
  0.00000000E+00  0.00000000E+00  0.00000000E+00
  0.00000000E+00  0.00000000E+00  0.00000000E+00
  0.00000000E+00  0.00000000E+00  0.00000000E+00
  0.00000000E+00  0.00000000E+00  0.00000000E+00
  0.00000000E+00  0.00000000E+00  0.00000000E+00
  0.00000000E+00  0.00000000E+00  0.00000000E+00
  0.00000000E+00  0.00000000E+00  0.00000000E+00
  0.00000000E+00  0.00000000E+00  0.00000000E+00
  0.00000000E+00  0.00000000E+00  0.00000000E+00
  0.00000000E+00  0.00000000E+00  0.00000000E+00
  0.00000000E+00  0.00000000E+00  0.00000000E+00
  0.00000000E+00  0.00000000E+00  0.00000000E+00
  0.00000000E+00  0.00000000E+00  0.00000000E+00
  0.00000000E+00  0.00000000E+00  0.00000000E+00
  0.00000000E+00  0.00000000E+00  0.00000000E+00
  0.00000000E+00  0.00000000E+00  0.00000000E+00
  0.00000000E+00  0.00000000E+00  0.00000000E+00
  0.00000000E+00  0.00000000E+00  0.00000000E+00
  0.00000000E+00  0.00000000E+00  0.00000000E+00
  0.00000000E+00  0.00000000E+00  0.00000000E+00
  0.00000000E+00  0.00000000E+00  0.00000000E+00
  0.00000000E+00  0.00000000E+00  0.00000000E+00
  0.00000000E+00  0.00000000E+00  0.00000000E+00
  0.00000000E+00  0.00000000E+00  0.00000000E+00
  0.00000000E+00  0.00000000E+00  0.00000000E+00
  0.00000000E+00  0.00000000E+00  0.00000000E+00
  0.00000000E+00  0.00000000E+00  0.00000000E+00
  0.00000000E+00  0.00000000E+00  0.00000000E+00
  0.00000000E+00  0.00000000E+00  0.00000000E+00
  0.00000000E+00  0.00000000E+00  0.00000000E+00
  0.00000000E+00  0.00000000E+00  0.00000000E+00
