V8 F24                                  
   1.00000000000000     
     7.7893669120318298    0.0000159270643885   -0.0000103031959296
     0.0000159869537543    7.7893694380398166   -0.0000968393227011
    -0.0000087104936722   -0.0000496299286418    7.9035393266103195
   V    F 
     8    24
Direct
  0.2499966694729423  0.2499999815950460  0.2500000567795624
  0.2499966617250564  0.2499997369462506  0.7499999506215289
  0.2499965157161199  0.7500000346300268  0.2499998977215441
  0.2499967292588750  0.7500001067436273  0.7500001269313472
  0.7499968109574340  0.2500000130119986  0.2499999610015493
  0.7499965936707440  0.2500000196636876  0.7500000766097443
  0.7499968906243595  0.7499999766672332  0.2500002066415092
  0.7499964866649762  0.7500000042081112  0.7499998950166997
  0.0000031625407075  0.2500000537410614  0.2500041143561802
  0.0000025930472489  0.2500000434597851  0.7500000792558126
  0.0000026759786209  0.7500000739623403  0.2499962621885317
  0.0000026201298979  0.7499999878454773  0.7500014863198672
  0.5000023792965322  0.2500000409256131  0.2499959422032845
  0.5000025508640533  0.2500000857902478  0.7499999759021136
  0.5000020664682410  0.7499999899576864  0.2500036940787425
  0.5000022631545633  0.7500000092330694  0.7499985324200011
  0.2500003630797210  0.2499996291664033  0.9999999412978653
  0.2500002321934645  0.2500004854183899  0.5000001891824226
  0.2500004053297147  0.7500001592236529  0.9999998515308732
  0.2500001702233732  0.7499998156917727  0.5000000382998167
  0.7500002142951416  0.2500005358595843  0.0000000533945794
  0.7500003872634196  0.2499995287709424  0.4999999583658834
  0.7500006216483825  0.7500004259104855  0.0000000096445376
  0.7499999472853318  0.7499996294863394  0.4999996459398375
  0.2500005186741419  0.0000001083767600  0.2500030660538641
  0.2500004805707476  0.9999996775229931  0.7499986890180068
  0.2500005168420714  0.4999999408221996  0.2499969508771471
  0.2500005209230594  0.5000000216220855  0.7500013425476695
  0.7500004872082755  0.9999999479192780  0.2499952113431974
  0.7500005015807432  0.0000000676000766  0.7500012146179813
  0.7500004330765009  0.4999999347767741  0.2500047669217409
  0.7500005302355746  0.4999999334509937  0.7499988129165800
 
  0.00000000E+00  0.00000000E+00  0.00000000E+00
  0.00000000E+00  0.00000000E+00  0.00000000E+00
  0.00000000E+00  0.00000000E+00  0.00000000E+00
  0.00000000E+00  0.00000000E+00  0.00000000E+00
  0.00000000E+00  0.00000000E+00  0.00000000E+00
  0.00000000E+00  0.00000000E+00  0.00000000E+00
  0.00000000E+00  0.00000000E+00  0.00000000E+00
  0.00000000E+00  0.00000000E+00  0.00000000E+00
  0.00000000E+00  0.00000000E+00  0.00000000E+00
  0.00000000E+00  0.00000000E+00  0.00000000E+00
  0.00000000E+00  0.00000000E+00  0.00000000E+00
  0.00000000E+00  0.00000000E+00  0.00000000E+00
  0.00000000E+00  0.00000000E+00  0.00000000E+00
  0.00000000E+00  0.00000000E+00  0.00000000E+00
  0.00000000E+00  0.00000000E+00  0.00000000E+00
  0.00000000E+00  0.00000000E+00  0.00000000E+00
  0.00000000E+00  0.00000000E+00  0.00000000E+00
  0.00000000E+00  0.00000000E+00  0.00000000E+00
  0.00000000E+00  0.00000000E+00  0.00000000E+00
  0.00000000E+00  0.00000000E+00  0.00000000E+00
  0.00000000E+00  0.00000000E+00  0.00000000E+00
  0.00000000E+00  0.00000000E+00  0.00000000E+00
  0.00000000E+00  0.00000000E+00  0.00000000E+00
  0.00000000E+00  0.00000000E+00  0.00000000E+00
  0.00000000E+00  0.00000000E+00  0.00000000E+00
  0.00000000E+00  0.00000000E+00  0.00000000E+00
  0.00000000E+00  0.00000000E+00  0.00000000E+00
  0.00000000E+00  0.00000000E+00  0.00000000E+00
  0.00000000E+00  0.00000000E+00  0.00000000E+00
  0.00000000E+00  0.00000000E+00  0.00000000E+00
  0.00000000E+00  0.00000000E+00  0.00000000E+00
  0.00000000E+00  0.00000000E+00  0.00000000E+00
