Ti12 F42                                
   1.00000000000000     
     7.2290008918600970    0.0003775211014161   -0.0037328460040935
    -3.6141927282871218    6.2585812430287024    0.0097304850637196
    -0.0078840426375017    0.0220751547527161   17.1638967984689614
   Ti   F 
    12    42
Direct
  0.2884962008390062  0.0012762372626582  0.3334489372362697
  0.7139142132826137  0.7160628839195553  0.0001106582563040
  0.9979728544982009  0.2844420003851909  0.6675542683890043
  0.3573806123490613  0.0022278754574003  0.8332216747187573
  0.6435599328643065  0.6420442043386956  0.5001864817226576
  0.9990711121837350  0.3539625485922429  0.1659131018883144
  0.6404784846581393  0.1405791300188639  0.5021789296525867
  0.5020301819728772  0.3610733427646196  0.1682571812536295
  0.8592060182472281  0.4989138094434438  0.8359494910651080
  0.3622554342733793  0.5042695047333154  0.8311944061633412
  0.1423732358618324  0.6391104725101826  0.4980719712368824
  0.4948923799199321  0.8581914870177769  0.1640552073986257
  0.5646856468432162  0.8298028340441803  0.0601918551336666
  0.2623593588730202  0.4332379712162577  0.7274168201547155
  0.1715110406089622  0.7375766784695301  0.3940420096259132
  0.4348800772838359  0.2638434616758474  0.2725150317859075
  0.8307864947033607  0.5697418044993938  0.9396757527193742
  0.7354375814230778  0.1675522380689358  0.6066478608560359
  0.8931923108009343  0.0660400909708159  0.7312075736767625
  0.1757103380968061  0.1066301903120817  0.3968800061142659
  0.9329469523822596  0.8304633316800789  0.0631210069768429
  0.1020160294968733  0.1683941255944390  0.6050946771938399
  0.0682122599163435  0.8964367731812288  0.2709301387405532
  0.8265126893392534  0.9356205548014600  0.9370379520131280
  0.1099736392775625  0.5289190948615854  0.6044455619779754
  0.4197862806132733  0.8879140191408936  0.2708718311668861
  0.4694208649950085  0.5823860781147872  0.9375344023205798
  0.8869302743213154  0.4190381338577893  0.7294900681960712
  0.5340029918110716  0.1117587244516258  0.3954489245605401
  0.5805457957192814  0.4696578851347795  0.0619950364596846
  0.3529656285626643  0.5561328705176081  0.4779330969617206
  0.2020616846192667  0.6459703997984505  0.1442388824458192
  0.4436964435641499  0.7976250873578294  0.8103532879871125
  0.6476069116574337  0.2054167216895877  0.8564347257138678
  0.5570912575350562  0.3510560101295113  0.5219981555299142
  0.7950106664616783  0.4412988246644716  0.1880272757503363
  0.6849734124933491  0.6034319819514096  0.4031810594658083
  0.9192374030986628  0.3143272337257841  0.0688335046763200
  0.3988303914957783  0.0859189282953281  0.7364734953261589
  0.3153162902956765  0.9182743730388054  0.9299435435543728
  0.6030329757003798  0.6821136903000564  0.5971142715973699
  0.0795832309340767  0.3926497663959694  0.2629187802552124
  0.9319753871240124  0.7207029777985383  0.5229786072227824
  0.7879561788769536  0.0662418346252025  0.1886495508823671
  0.2789085755361427  0.2116636641965641  0.8566137802449987
  0.0691062639159554  0.7912712901859535  0.8101038506107656
  0.7227187150220615  0.9309175190519667  0.4773687824174644
  0.2094049804906248  0.2767446814885588  0.1429947523570334
  0.6399979243376208  0.5555534912303841  0.8009091987042325
  0.9163955146319225  0.3605654812424035  0.4679861571242512
  0.4436174109966728  0.0844066893511553  0.1338686181414275
  0.3617462752395966  0.9143761500790148  0.5323420050667167
  0.5520452329258916  0.6383090602613706  0.1984088674802607
  0.0861799570285910  0.4478637861044064  0.8657369318294741
 
  0.00000000E+00  0.00000000E+00  0.00000000E+00
  0.00000000E+00  0.00000000E+00  0.00000000E+00
  0.00000000E+00  0.00000000E+00  0.00000000E+00
  0.00000000E+00  0.00000000E+00  0.00000000E+00
  0.00000000E+00  0.00000000E+00  0.00000000E+00
  0.00000000E+00  0.00000000E+00  0.00000000E+00
  0.00000000E+00  0.00000000E+00  0.00000000E+00
  0.00000000E+00  0.00000000E+00  0.00000000E+00
  0.00000000E+00  0.00000000E+00  0.00000000E+00
  0.00000000E+00  0.00000000E+00  0.00000000E+00
  0.00000000E+00  0.00000000E+00  0.00000000E+00
  0.00000000E+00  0.00000000E+00  0.00000000E+00
  0.00000000E+00  0.00000000E+00  0.00000000E+00
  0.00000000E+00  0.00000000E+00  0.00000000E+00
  0.00000000E+00  0.00000000E+00  0.00000000E+00
  0.00000000E+00  0.00000000E+00  0.00000000E+00
  0.00000000E+00  0.00000000E+00  0.00000000E+00
  0.00000000E+00  0.00000000E+00  0.00000000E+00
  0.00000000E+00  0.00000000E+00  0.00000000E+00
  0.00000000E+00  0.00000000E+00  0.00000000E+00
  0.00000000E+00  0.00000000E+00  0.00000000E+00
  0.00000000E+00  0.00000000E+00  0.00000000E+00
  0.00000000E+00  0.00000000E+00  0.00000000E+00
  0.00000000E+00  0.00000000E+00  0.00000000E+00
  0.00000000E+00  0.00000000E+00  0.00000000E+00
  0.00000000E+00  0.00000000E+00  0.00000000E+00
  0.00000000E+00  0.00000000E+00  0.00000000E+00
  0.00000000E+00  0.00000000E+00  0.00000000E+00
  0.00000000E+00  0.00000000E+00  0.00000000E+00
  0.00000000E+00  0.00000000E+00  0.00000000E+00
  0.00000000E+00  0.00000000E+00  0.00000000E+00
  0.00000000E+00  0.00000000E+00  0.00000000E+00
  0.00000000E+00  0.00000000E+00  0.00000000E+00
  0.00000000E+00  0.00000000E+00  0.00000000E+00
  0.00000000E+00  0.00000000E+00  0.00000000E+00
  0.00000000E+00  0.00000000E+00  0.00000000E+00
  0.00000000E+00  0.00000000E+00  0.00000000E+00
  0.00000000E+00  0.00000000E+00  0.00000000E+00
  0.00000000E+00  0.00000000E+00  0.00000000E+00
  0.00000000E+00  0.00000000E+00  0.00000000E+00
  0.00000000E+00  0.00000000E+00  0.00000000E+00
  0.00000000E+00  0.00000000E+00  0.00000000E+00
  0.00000000E+00  0.00000000E+00  0.00000000E+00
  0.00000000E+00  0.00000000E+00  0.00000000E+00
  0.00000000E+00  0.00000000E+00  0.00000000E+00
  0.00000000E+00  0.00000000E+00  0.00000000E+00
  0.00000000E+00  0.00000000E+00  0.00000000E+00
  0.00000000E+00  0.00000000E+00  0.00000000E+00
  0.00000000E+00  0.00000000E+00  0.00000000E+00
  0.00000000E+00  0.00000000E+00  0.00000000E+00
  0.00000000E+00  0.00000000E+00  0.00000000E+00
  0.00000000E+00  0.00000000E+00  0.00000000E+00
  0.00000000E+00  0.00000000E+00  0.00000000E+00
  0.00000000E+00  0.00000000E+00  0.00000000E+00
