Ca3 Fe12 F42                            
   1.00000000000000     
     7.3270957639231735   -0.0011903206243614   -0.0077568418713717
    -3.6621709274386278    6.3452927527684650   -0.0025483702972544
     0.0226846090146722    0.0158213881692730   17.2609025851714257
   Ca   Fe   F 
     3    12    42
Direct
  0.8674315484266639  0.0097834621641843  0.3342223030373447
  0.1515252580837555  0.1422965472849528  0.0018487860925610
  0.0025188145684331  0.8580440973510695  0.6676926048753016
  0.3131041118532639  0.0059351560363102  0.3340454608656656
  0.0059824451403669  0.3072832818784623  0.6668374862309133
  0.7014028534717812  0.6990776006838302 -0.0001032093783314
  0.3344499212318573  0.0025566688274144  0.8331791539067951
  0.0063054006243428  0.3334378590428360  0.1666966467896410
  0.6789521324323807  0.6737989003318119  0.4991803823381629
  0.4971734187135255  0.8404063291148042  0.1645677599093153
  0.1724287178007678  0.6583358929392328  0.4984536613472480
  0.3497427399105087  0.5114246423074943  0.8317625970049651
  0.8402264890938425  0.4923129867211772  0.8353904623859726
  0.6641586547737416  0.1678169338968425  0.5018380168148124
  0.5154590509068723  0.3489375049362071  0.1684325444220348
  0.7492047704994762  0.2037359585695780  0.6068803376831667
  0.8055012738206009  0.5453954287121630  0.9402039907935356
  0.4661731320571512  0.2622409364762601  0.2735470905123356
  0.2034373585467333  0.7484657455482596  0.3940039529467265
  0.5554131296572080  0.8105372641582486  0.0598852333625069
  0.2626330817412608  0.4546225412519147  0.7269290645837626
  0.8412965752002817  0.9361280636194195  0.9365578860899912
  0.0761896295058436  0.9072873028326438  0.2703420829647999
  0.1050569469336995  0.1694807259244671  0.6031296105421601
  0.9373662127807088  0.8299467393487072  0.0644126189052382
  0.9011506410496188  0.0698977659724987  0.7305688287824650
  0.1804485410362013  0.1105911280246158  0.3977638208113604
  0.5411016968225938  0.4268009003329369  0.0594315139913142
  0.5864411923873182  0.1159531154449430  0.3925896755332111
  0.8906107966802654  0.4633093588186969  0.7264630250519855
  0.4315275526420392  0.5471282388738888  0.9400816837850395
  0.1246829317042699  0.5786653330404878  0.6070922734673480
  0.4595164894121461  0.8845809456481311  0.2728564435423493
  0.8019051608377464  0.4247926267036914  0.1763070174799449
  0.5880779479235622  0.3783918798683176  0.5084570344263593
  0.6297357878783624  0.2059872209080603  0.8443542152381043
  0.4231471497445273  0.7969593849288853  0.8209867037532620
  0.3843473982402603  0.5848237428798391  0.4878512179083725
  0.2123496954093570  0.6269985081921772  0.1530002747310598
  0.0455327980518532  0.3281139121941083  0.2741623685306967
  0.6846707152821627  0.7172317942208625  0.6068507158495035
  0.2872634030593444  0.9613427956099068  0.9405357212421608
  0.3233757226830777  0.0422321134769511  0.7260479562368598
  0.7287581445244213  0.6878144517257860  0.3919115476905347
  0.9666173693436295  0.2794241945011520  0.0596814448172625
  0.2198946432752757  0.2466934785891436  0.1472354824197776
  0.7649445556032473  0.9739242380865131  0.4802624610936035
  0.0351551582546203  0.7869719599169974  0.8125866551066355
  0.2521551963624285  0.2180788546157803  0.8556819025126585
  0.9767462532622266  0.7565405005637321  0.5215652322594816
  0.7900341370470522  0.0354629691211025  0.1894223591271356
  0.0674203820535595  0.4454858537240004  0.8639259113899920
  0.5617048193165948  0.6229610640756579  0.1966540077234720
  0.3896325822112437  0.9408593593692093  0.5302490003883187
  0.4496876563040346  0.0672616620299500  0.1354752043202145
  0.6237855735915258  0.5578763441411972  0.8027748894895466
  0.9464442692304006  0.3835557594425081  0.4696033932733432
 
  0.00000000E+00  0.00000000E+00  0.00000000E+00
  0.00000000E+00  0.00000000E+00  0.00000000E+00
  0.00000000E+00  0.00000000E+00  0.00000000E+00
  0.00000000E+00  0.00000000E+00  0.00000000E+00
  0.00000000E+00  0.00000000E+00  0.00000000E+00
  0.00000000E+00  0.00000000E+00  0.00000000E+00
  0.00000000E+00  0.00000000E+00  0.00000000E+00
  0.00000000E+00  0.00000000E+00  0.00000000E+00
  0.00000000E+00  0.00000000E+00  0.00000000E+00
  0.00000000E+00  0.00000000E+00  0.00000000E+00
  0.00000000E+00  0.00000000E+00  0.00000000E+00
  0.00000000E+00  0.00000000E+00  0.00000000E+00
  0.00000000E+00  0.00000000E+00  0.00000000E+00
  0.00000000E+00  0.00000000E+00  0.00000000E+00
  0.00000000E+00  0.00000000E+00  0.00000000E+00
  0.00000000E+00  0.00000000E+00  0.00000000E+00
  0.00000000E+00  0.00000000E+00  0.00000000E+00
  0.00000000E+00  0.00000000E+00  0.00000000E+00
  0.00000000E+00  0.00000000E+00  0.00000000E+00
  0.00000000E+00  0.00000000E+00  0.00000000E+00
  0.00000000E+00  0.00000000E+00  0.00000000E+00
  0.00000000E+00  0.00000000E+00  0.00000000E+00
  0.00000000E+00  0.00000000E+00  0.00000000E+00
  0.00000000E+00  0.00000000E+00  0.00000000E+00
  0.00000000E+00  0.00000000E+00  0.00000000E+00
  0.00000000E+00  0.00000000E+00  0.00000000E+00
  0.00000000E+00  0.00000000E+00  0.00000000E+00
  0.00000000E+00  0.00000000E+00  0.00000000E+00
  0.00000000E+00  0.00000000E+00  0.00000000E+00
  0.00000000E+00  0.00000000E+00  0.00000000E+00
  0.00000000E+00  0.00000000E+00  0.00000000E+00
  0.00000000E+00  0.00000000E+00  0.00000000E+00
  0.00000000E+00  0.00000000E+00  0.00000000E+00
  0.00000000E+00  0.00000000E+00  0.00000000E+00
  0.00000000E+00  0.00000000E+00  0.00000000E+00
  0.00000000E+00  0.00000000E+00  0.00000000E+00
  0.00000000E+00  0.00000000E+00  0.00000000E+00
  0.00000000E+00  0.00000000E+00  0.00000000E+00
  0.00000000E+00  0.00000000E+00  0.00000000E+00
  0.00000000E+00  0.00000000E+00  0.00000000E+00
  0.00000000E+00  0.00000000E+00  0.00000000E+00
  0.00000000E+00  0.00000000E+00  0.00000000E+00
  0.00000000E+00  0.00000000E+00  0.00000000E+00
  0.00000000E+00  0.00000000E+00  0.00000000E+00
  0.00000000E+00  0.00000000E+00  0.00000000E+00
  0.00000000E+00  0.00000000E+00  0.00000000E+00
  0.00000000E+00  0.00000000E+00  0.00000000E+00
  0.00000000E+00  0.00000000E+00  0.00000000E+00
  0.00000000E+00  0.00000000E+00  0.00000000E+00
  0.00000000E+00  0.00000000E+00  0.00000000E+00
  0.00000000E+00  0.00000000E+00  0.00000000E+00
  0.00000000E+00  0.00000000E+00  0.00000000E+00
  0.00000000E+00  0.00000000E+00  0.00000000E+00
  0.00000000E+00  0.00000000E+00  0.00000000E+00
  0.00000000E+00  0.00000000E+00  0.00000000E+00
  0.00000000E+00  0.00000000E+00  0.00000000E+00
  0.00000000E+00  0.00000000E+00  0.00000000E+00
