Ca9 Co12 F42                            
   1.00000000000000     
     7.3428146593015500   -0.0514551593171214    0.0034176597209655
    -3.6751271537731722    6.3617699641208070    0.0267474721033591
    -0.5432971276642996    0.2237414195964239   18.0865142035215172
   Ca   Co   F 
     9    12    42
Direct
  0.4854701469086464  0.8335891020563295  0.6639970996734519
  0.8301656634847205  0.4791871941885830  0.3286060358542002
  0.6133337319095276  0.1390179100121145  0.9907112317553484
  0.9837271918411759  0.8112103160973874  0.6631197676469540
  0.8102448649755232  0.9774526612642944  0.3338227502469238
  0.1424918172591276  0.6101334879157321  0.0056458007496261
  0.0019034185105298  0.8528942446108942  0.1579823189580836
  0.8576623398938352  0.0001890521879702  0.8384698165126139
  0.1814337213548569  0.1978779044870151  0.4974436224024004
  0.3163771594316742  0.9903016085262308  0.3306893931316282
  0.9969394966763403  0.3176087438906308  0.6678672503555561
  0.6582404505416406  0.6542790023325438  0.9979941517774122
  0.3343066814095863  0.9912779976282877  0.8227153737024366
  0.9913969114276000  0.3285175128983937  0.1736046669034081
  0.6734645373580861  0.6667849815335600  0.4979706595228777
  0.4883579744060782  0.8246007690244070  0.1683249448046951
  0.1637519908410994  0.6700890397255748  0.4991930635649382
  0.3380581435382481  0.5012307862841539  0.8321345636692072
  0.8295569026629934  0.4885642688635983  0.8290683214580881
  0.6706084776496866  0.1615748691660883  0.4990142301154492
  0.4994058080773272  0.3319434529047385  0.1646489214699471
  0.7343322036990187  0.1627818845755726  0.6074630504986231
  0.8110045072098231  0.5018923960032780  0.9425264642475710
  0.4799396310813790  0.2635255365146278  0.2740419210791742
  0.1573728961952057  0.7238147615610657  0.3902308151356664
  0.5059897023519184  0.8064198000837095  0.0550764724360846
  0.2728917858929307  0.4832070307412906  0.7224440408546826
  0.7687998821720967  0.9442276051060290  0.9530815103450507
  0.0097112113411271  0.8313908972672550  0.2784657218603286
  0.1082243947438073  0.1565235907086517  0.6147285771150948
  0.9475880625634900  0.7653727139616819  0.0435936685600993
  0.8365127410148361  0.0076238353150799  0.7179324119826873
  0.1551597614212525  0.1015116633166286  0.3826702596327607
  0.5454272622616472  0.3752872125642241  0.0524858408318920
  0.6160512288843236  0.1386480806245984  0.3847862770607264
  0.8641750310219933  0.4663014712840976  0.7202762528187279
  0.3778568807939067  0.5407399360257727  0.9449460523750162
  0.1337618751695118  0.6093054288840847  0.6123772964718412
  0.4665184284985102  0.8603775484943910  0.2776892618809654
  0.8155130523771064  0.4606478707317692  0.1940145902752022
  0.5495650595454009  0.3501762524232390  0.5031801754225569
  0.6373111747549913  0.1786937732972405  0.8567340131170411
  0.4674235401134723  0.8161890966231269  0.8025433793314747
  0.3637917401754152  0.5632917729890750  0.4923602279954480
  0.1792110748836535  0.6319926278799173  0.1404273625535026
  0.9924804656556816  0.3149169348002729  0.2876501535911231
  0.6599391261461136  0.6980890166464704  0.6093525585650355
  0.3011633049884423  0.9047997135620633  0.9343718531569110
  0.3211405092799069  0.9917715174372717  0.7090384220342330
  0.7063815190954159  0.6553193659073600  0.3870853393885838
  0.9082752312230653  0.2970518501177111  0.0621651744639919
  0.1875224885737836  0.2231449209495580  0.1546292426640647
  0.7891381556905444  0.9760021020143910  0.4701208035082232
  0.0217461608616887  0.8021753842876080  0.8032583897914307
  0.2296617527006788  0.1884113860759200  0.8414396384389988
  0.9874046069474645  0.7997219050849367  0.5253753102425733
  0.8022397940999966  0.0161909849002129  0.1934790682940388
  0.0342005010987663  0.3922933755759885  0.8563622801541868
  0.6082836274853420  0.6371034825576558  0.1742910058749914
  0.3903557424455926  0.9441794031267676  0.5368465964399576
  0.3919860764241108  0.0285452027982203  0.1401608492248414
  0.6444285502450455  0.6107013203412563  0.8263910962051639
  0.9616218287132980  0.3743144412413955  0.4683495898042054
 
  0.00000000E+00  0.00000000E+00  0.00000000E+00
  0.00000000E+00  0.00000000E+00  0.00000000E+00
  0.00000000E+00  0.00000000E+00  0.00000000E+00
  0.00000000E+00  0.00000000E+00  0.00000000E+00
  0.00000000E+00  0.00000000E+00  0.00000000E+00
  0.00000000E+00  0.00000000E+00  0.00000000E+00
  0.00000000E+00  0.00000000E+00  0.00000000E+00
  0.00000000E+00  0.00000000E+00  0.00000000E+00
  0.00000000E+00  0.00000000E+00  0.00000000E+00
  0.00000000E+00  0.00000000E+00  0.00000000E+00
  0.00000000E+00  0.00000000E+00  0.00000000E+00
  0.00000000E+00  0.00000000E+00  0.00000000E+00
  0.00000000E+00  0.00000000E+00  0.00000000E+00
  0.00000000E+00  0.00000000E+00  0.00000000E+00
  0.00000000E+00  0.00000000E+00  0.00000000E+00
  0.00000000E+00  0.00000000E+00  0.00000000E+00
  0.00000000E+00  0.00000000E+00  0.00000000E+00
  0.00000000E+00  0.00000000E+00  0.00000000E+00
  0.00000000E+00  0.00000000E+00  0.00000000E+00
  0.00000000E+00  0.00000000E+00  0.00000000E+00
  0.00000000E+00  0.00000000E+00  0.00000000E+00
  0.00000000E+00  0.00000000E+00  0.00000000E+00
  0.00000000E+00  0.00000000E+00  0.00000000E+00
  0.00000000E+00  0.00000000E+00  0.00000000E+00
  0.00000000E+00  0.00000000E+00  0.00000000E+00
  0.00000000E+00  0.00000000E+00  0.00000000E+00
  0.00000000E+00  0.00000000E+00  0.00000000E+00
  0.00000000E+00  0.00000000E+00  0.00000000E+00
  0.00000000E+00  0.00000000E+00  0.00000000E+00
  0.00000000E+00  0.00000000E+00  0.00000000E+00
  0.00000000E+00  0.00000000E+00  0.00000000E+00
  0.00000000E+00  0.00000000E+00  0.00000000E+00
  0.00000000E+00  0.00000000E+00  0.00000000E+00
  0.00000000E+00  0.00000000E+00  0.00000000E+00
  0.00000000E+00  0.00000000E+00  0.00000000E+00
  0.00000000E+00  0.00000000E+00  0.00000000E+00
  0.00000000E+00  0.00000000E+00  0.00000000E+00
  0.00000000E+00  0.00000000E+00  0.00000000E+00
  0.00000000E+00  0.00000000E+00  0.00000000E+00
  0.00000000E+00  0.00000000E+00  0.00000000E+00
  0.00000000E+00  0.00000000E+00  0.00000000E+00
  0.00000000E+00  0.00000000E+00  0.00000000E+00
  0.00000000E+00  0.00000000E+00  0.00000000E+00
  0.00000000E+00  0.00000000E+00  0.00000000E+00
  0.00000000E+00  0.00000000E+00  0.00000000E+00
  0.00000000E+00  0.00000000E+00  0.00000000E+00
  0.00000000E+00  0.00000000E+00  0.00000000E+00
  0.00000000E+00  0.00000000E+00  0.00000000E+00
  0.00000000E+00  0.00000000E+00  0.00000000E+00
  0.00000000E+00  0.00000000E+00  0.00000000E+00
  0.00000000E+00  0.00000000E+00  0.00000000E+00
  0.00000000E+00  0.00000000E+00  0.00000000E+00
  0.00000000E+00  0.00000000E+00  0.00000000E+00
  0.00000000E+00  0.00000000E+00  0.00000000E+00
  0.00000000E+00  0.00000000E+00  0.00000000E+00
  0.00000000E+00  0.00000000E+00  0.00000000E+00
  0.00000000E+00  0.00000000E+00  0.00000000E+00
  0.00000000E+00  0.00000000E+00  0.00000000E+00
  0.00000000E+00  0.00000000E+00  0.00000000E+00
  0.00000000E+00  0.00000000E+00  0.00000000E+00
  0.00000000E+00  0.00000000E+00  0.00000000E+00
  0.00000000E+00  0.00000000E+00  0.00000000E+00
  0.00000000E+00  0.00000000E+00  0.00000000E+00
