Ni12 F42                                
   1.00000000000000     
     6.8430144726548665   -0.0091556988483431    0.0741593890266348
    -3.4260088704895733    5.9446439327064118   -0.0769131964911935
     0.0650072165579907   -0.0796019189758096   16.2500098534547348
   Ni   F 
    12    42
Direct
  0.2972355995768729  0.9949933010035727  0.3341827703620939
  0.6979035238636422  0.6958386864764680  0.0016642842634535
  0.0050573618127982  0.3068221619317955  0.6630834264736677
  0.3428085268687314  0.0021102598148200  0.8331345405205939
  0.6584390135819411  0.6582461560519098  0.4991086501334898
  0.9994667624282106  0.3406787701566454  0.1691756824780348
  0.6574220299243091  0.1573015280162586  0.4984504007846329
  0.4997108530443272  0.3415653897011642  0.1683347794238537
  0.8447694813920460  0.5028032100697457  0.8335505119574528
  0.3451512618071174  0.5028422342178736  0.8332778581706904
  0.1571572397491927  0.6576726043750138  0.4989451341811117
  0.4992503782739584  0.8414442839724184  0.1672121591412880
  0.5653988065005962  0.8278719693932510  0.0598840667611011
  0.2567289934141387  0.4310148266578240  0.7214304429489562
  0.1703350926949602  0.7337356416332894  0.3895392777308817
  0.4288839646859307  0.2529539145282799  0.2795732850651712
  0.8303795793034254  0.5695311021275178  0.9434765475564671
  0.7410571453068165  0.1834918464038436  0.6051679976007994
  0.8880464772491801  0.0725629532948003  0.7237847309477056
  0.1818597595946909  0.1043332375562802  0.4018014965697763
  0.9238518650539269  0.8110696117569988  0.0675639952082353
  0.1178812525878134  0.1959591635387388  0.5945589590836281
  0.0706378371566593  0.8854630174416759  0.2696384206210830
  0.8158100650092228  0.9256003516248333  0.9381710562971979
  0.1341236550466884  0.5751623817450542  0.6066998615973485
  0.4337151397101916  0.8634264455490369  0.2733118210806627
  0.4369295565679344  0.5660275162889209  0.9423969178755447
  0.8696752964472254  0.4349809609975366  0.7254701716845309
  0.5671266348468748  0.1229528187642202  0.3930434715229094
  0.5628828353100268  0.4326485108608698  0.0594679624809278
  0.3559522196229380  0.5664818472958228  0.4727668085210144
  0.1997628487211533  0.6304599912223773  0.1413966015755929
  0.4313727317903169  0.8035081631504147  0.8042121368949976
  0.6346012166367160  0.2056104470539134  0.8592644289719035
  0.5650351162707790  0.3560110000794842  0.5227274707076903
  0.8015632221927679  0.4285179625468958  0.1995992930450412
  0.7038350389203515  0.6155688023448846  0.3967525242473134
  0.8972004603371037  0.2939243951804657  0.0687068122558676
  0.3883919522219468  0.0967333982840085  0.7316789798165184
  0.2990156569741225  0.9078396970857098  0.9344826223664667
  0.6114100011329657  0.7002396885141530  0.6012891885775680
  0.1011442523735837  0.3889703476451747  0.2698738071079416
  0.9601662298708645  0.7510319447980071  0.5248840225766327
  0.7981969209613682  0.0509291155420048  0.1954433974962673
  0.2533305851733538  0.1994840839872145  0.8607667471743983
  0.0518830509205097  0.7996890042868361  0.8072179681957230
  0.7506872307471266  0.9594399955441147  0.4748218376774384
  0.1954617554003896  0.2515688746461582  0.1394259208880305
  0.6193731698083024  0.5698713152911284  0.7987183060770531
  0.9278971509679617  0.3686025668971513  0.4632680255070115
  0.4306876742339011  0.0657271911637625  0.1349324740645413
  0.3865157014500004  0.9467843814377747  0.5337865881878555
  0.5666146766459534  0.6170608524996051  0.2016248505811015
  0.0702051478160456  0.4348400775523093  0.8673585069627660
 
  0.00000000E+00  0.00000000E+00  0.00000000E+00
  0.00000000E+00  0.00000000E+00  0.00000000E+00
  0.00000000E+00  0.00000000E+00  0.00000000E+00
  0.00000000E+00  0.00000000E+00  0.00000000E+00
  0.00000000E+00  0.00000000E+00  0.00000000E+00
  0.00000000E+00  0.00000000E+00  0.00000000E+00
  0.00000000E+00  0.00000000E+00  0.00000000E+00
  0.00000000E+00  0.00000000E+00  0.00000000E+00
  0.00000000E+00  0.00000000E+00  0.00000000E+00
  0.00000000E+00  0.00000000E+00  0.00000000E+00
  0.00000000E+00  0.00000000E+00  0.00000000E+00
  0.00000000E+00  0.00000000E+00  0.00000000E+00
  0.00000000E+00  0.00000000E+00  0.00000000E+00
  0.00000000E+00  0.00000000E+00  0.00000000E+00
  0.00000000E+00  0.00000000E+00  0.00000000E+00
  0.00000000E+00  0.00000000E+00  0.00000000E+00
  0.00000000E+00  0.00000000E+00  0.00000000E+00
  0.00000000E+00  0.00000000E+00  0.00000000E+00
  0.00000000E+00  0.00000000E+00  0.00000000E+00
  0.00000000E+00  0.00000000E+00  0.00000000E+00
  0.00000000E+00  0.00000000E+00  0.00000000E+00
  0.00000000E+00  0.00000000E+00  0.00000000E+00
  0.00000000E+00  0.00000000E+00  0.00000000E+00
  0.00000000E+00  0.00000000E+00  0.00000000E+00
  0.00000000E+00  0.00000000E+00  0.00000000E+00
  0.00000000E+00  0.00000000E+00  0.00000000E+00
  0.00000000E+00  0.00000000E+00  0.00000000E+00
  0.00000000E+00  0.00000000E+00  0.00000000E+00
  0.00000000E+00  0.00000000E+00  0.00000000E+00
  0.00000000E+00  0.00000000E+00  0.00000000E+00
  0.00000000E+00  0.00000000E+00  0.00000000E+00
  0.00000000E+00  0.00000000E+00  0.00000000E+00
  0.00000000E+00  0.00000000E+00  0.00000000E+00
  0.00000000E+00  0.00000000E+00  0.00000000E+00
  0.00000000E+00  0.00000000E+00  0.00000000E+00
  0.00000000E+00  0.00000000E+00  0.00000000E+00
  0.00000000E+00  0.00000000E+00  0.00000000E+00
  0.00000000E+00  0.00000000E+00  0.00000000E+00
  0.00000000E+00  0.00000000E+00  0.00000000E+00
  0.00000000E+00  0.00000000E+00  0.00000000E+00
  0.00000000E+00  0.00000000E+00  0.00000000E+00
  0.00000000E+00  0.00000000E+00  0.00000000E+00
  0.00000000E+00  0.00000000E+00  0.00000000E+00
  0.00000000E+00  0.00000000E+00  0.00000000E+00
  0.00000000E+00  0.00000000E+00  0.00000000E+00
  0.00000000E+00  0.00000000E+00  0.00000000E+00
  0.00000000E+00  0.00000000E+00  0.00000000E+00
  0.00000000E+00  0.00000000E+00  0.00000000E+00
  0.00000000E+00  0.00000000E+00  0.00000000E+00
  0.00000000E+00  0.00000000E+00  0.00000000E+00
  0.00000000E+00  0.00000000E+00  0.00000000E+00
  0.00000000E+00  0.00000000E+00  0.00000000E+00
  0.00000000E+00  0.00000000E+00  0.00000000E+00
  0.00000000E+00  0.00000000E+00  0.00000000E+00
