β-Cobalt                               
   1.00000000000000     
     4.9197658896443937   -0.0000876731931976   -0.0000000011925433
    -1.2299794369480810    2.1302992719084584   -0.0000000006658385
     0.0000000001748831   -0.0000000026080962    4.0002744077615349
   Co
     4
Direct
  0.1666632564908071  0.6666731239375889  0.2500000418899244
  0.8333366927392459  0.3333268309171001  0.7499999582477008
  0.6666636251929754  0.6666734721261494  0.2500000421107624
  0.3333363805769644  0.3333265430191591  0.7499999577516128
 
  0.00000000E+00  0.00000000E+00  0.00000000E+00
  0.00000000E+00  0.00000000E+00  0.00000000E+00
  0.00000000E+00  0.00000000E+00  0.00000000E+00
  0.00000000E+00  0.00000000E+00  0.00000000E+00
