Ti12 F42                                
   1.00000000000000     
     7.5125079257650311    0.0051104165855668    0.0083108310136848
    -3.7415179173086539    6.5042240529045472   -0.0011556419991696
    -0.1024220895096197   -0.0093366015565586   17.4690914186247106
   Ti   F 
    12    42
Direct
  0.2581632081745582  0.9980247718370023  0.3320370676225224
  0.7396711087667569  0.7393406662148436  0.9999375005330364
  0.9971749969822667  0.2594076193518831  0.6662605654269598
  0.3518425684152433  0.9955752171543892  0.8336853509767153
  0.6531691515710207  0.6540223312756481  0.5000704209916975
  0.9996547580353337  0.3533696637419510  0.1674713524908995
  0.6412832213556214  0.1485459348276521  0.4974722667206919
  0.5029564356619147  0.3598495266824742  0.1654924385541321
  0.8553904237890322  0.4928458548056227  0.8330689019073532
  0.3579725676701528  0.4982486731557714  0.8350338939783697
  0.1470680933222965  0.6429829578081723  0.5018347522349558
  0.4971326667780716  0.8571720093871136  0.1674149756184491
  0.5857878183274892  0.8311893252544920  0.0600618389751801
  0.2427384128029786  0.4067943866157577  0.7303128000660521
  0.1672283345710284  0.7561254268284756  0.3941895517846490
  0.4131207091353417  0.2464963463684953  0.2700759495478167
  0.8311486969677091  0.5842231385600485  0.9402408059453293
  0.7523883981349826  0.1677288177235994  0.6029524414328407
  0.8842179700390247  0.0472427669609630  0.7319243072979731
  0.1631036059084394  0.1147918852593079  0.3975611365378953
  0.9486531413860035  0.8381404193254696  0.0670662653322935
  0.1094813963550010  0.1616025029561570  0.5998333914275022
  0.0503172652795598  0.8897789298197623  0.2644331079408246
  0.8351572388647739  0.9462352563084551  0.9321411173296923
  0.1117949032815275  0.5175522761354188  0.6058387364316076
  0.4095715872188066  0.8927993215683614  0.2720276560362720
  0.4798460413497097  0.5874776263658390  0.9371969217832614
  0.8876781424486992  0.4039835123879882  0.7282619050690116
  0.5180286067842417  0.1154587592167218  0.3956966219355706
  0.5910025895718007  0.4807608761737896  0.0634227872683581
  0.3699926852663609  0.5752186937331771  0.4749289403745252
  0.2040287900116482  0.6353772815215422  0.1423227058904857
  0.4301933174751582  0.7906011216267430  0.8084026320918198
  0.6335303270730464  0.2006604941680479  0.8591347577204189
  0.5719030355305961  0.3697216583456395  0.5253955972692310
  0.7952703593188701  0.4329347048572316  0.1920914730271690
  0.7006206006562365  0.6063708035330109  0.4017615388269320
  0.9038166015105205  0.3055309059114819  0.0690134022523168
  0.3963229996084578  0.0914342603760190  0.7354450365042950
  0.3033228857155095  0.8990693124581597  0.9319418034725757
  0.6076294227827148  0.7043506005508107  0.5982055969585360
  0.0954051958678619  0.3993025986113423  0.2658524382057550
  0.9323799034816531  0.7247733137801049  0.5264567248413101
  0.7924882974048444  0.0731959643154312  0.1929567744269534
  0.2759663615886438  0.2020349438784805  0.8596868449552630
  0.0712799132521340  0.7883770085198805  0.8078189954424317
  0.7250613874505092  0.9348995102295419  0.4737144711600223
  0.2065944958677335  0.2785796619685357  0.1415532138108873
  0.6359889179776701  0.5480577471128143  0.8035168474295347
  0.9237506807465365  0.3718069337607943  0.4700018362079206
  0.4466933802004007  0.0786832652352203  0.1354400660409780
  0.3639790465773416  0.9199044249842245  0.5295469229260519
  0.5538538271656890  0.6391329212678230  0.1973287657443734
  0.0771835085204842  0.4422150691823177  0.8645657852223181
 
  0.00000000E+00  0.00000000E+00  0.00000000E+00
  0.00000000E+00  0.00000000E+00  0.00000000E+00
  0.00000000E+00  0.00000000E+00  0.00000000E+00
  0.00000000E+00  0.00000000E+00  0.00000000E+00
  0.00000000E+00  0.00000000E+00  0.00000000E+00
  0.00000000E+00  0.00000000E+00  0.00000000E+00
  0.00000000E+00  0.00000000E+00  0.00000000E+00
  0.00000000E+00  0.00000000E+00  0.00000000E+00
  0.00000000E+00  0.00000000E+00  0.00000000E+00
  0.00000000E+00  0.00000000E+00  0.00000000E+00
  0.00000000E+00  0.00000000E+00  0.00000000E+00
  0.00000000E+00  0.00000000E+00  0.00000000E+00
  0.00000000E+00  0.00000000E+00  0.00000000E+00
  0.00000000E+00  0.00000000E+00  0.00000000E+00
  0.00000000E+00  0.00000000E+00  0.00000000E+00
  0.00000000E+00  0.00000000E+00  0.00000000E+00
  0.00000000E+00  0.00000000E+00  0.00000000E+00
  0.00000000E+00  0.00000000E+00  0.00000000E+00
  0.00000000E+00  0.00000000E+00  0.00000000E+00
  0.00000000E+00  0.00000000E+00  0.00000000E+00
  0.00000000E+00  0.00000000E+00  0.00000000E+00
  0.00000000E+00  0.00000000E+00  0.00000000E+00
  0.00000000E+00  0.00000000E+00  0.00000000E+00
  0.00000000E+00  0.00000000E+00  0.00000000E+00
  0.00000000E+00  0.00000000E+00  0.00000000E+00
  0.00000000E+00  0.00000000E+00  0.00000000E+00
  0.00000000E+00  0.00000000E+00  0.00000000E+00
  0.00000000E+00  0.00000000E+00  0.00000000E+00
  0.00000000E+00  0.00000000E+00  0.00000000E+00
  0.00000000E+00  0.00000000E+00  0.00000000E+00
  0.00000000E+00  0.00000000E+00  0.00000000E+00
  0.00000000E+00  0.00000000E+00  0.00000000E+00
  0.00000000E+00  0.00000000E+00  0.00000000E+00
  0.00000000E+00  0.00000000E+00  0.00000000E+00
  0.00000000E+00  0.00000000E+00  0.00000000E+00
  0.00000000E+00  0.00000000E+00  0.00000000E+00
  0.00000000E+00  0.00000000E+00  0.00000000E+00
  0.00000000E+00  0.00000000E+00  0.00000000E+00
  0.00000000E+00  0.00000000E+00  0.00000000E+00
  0.00000000E+00  0.00000000E+00  0.00000000E+00
  0.00000000E+00  0.00000000E+00  0.00000000E+00
  0.00000000E+00  0.00000000E+00  0.00000000E+00
  0.00000000E+00  0.00000000E+00  0.00000000E+00
  0.00000000E+00  0.00000000E+00  0.00000000E+00
  0.00000000E+00  0.00000000E+00  0.00000000E+00
  0.00000000E+00  0.00000000E+00  0.00000000E+00
  0.00000000E+00  0.00000000E+00  0.00000000E+00
  0.00000000E+00  0.00000000E+00  0.00000000E+00
  0.00000000E+00  0.00000000E+00  0.00000000E+00
  0.00000000E+00  0.00000000E+00  0.00000000E+00
  0.00000000E+00  0.00000000E+00  0.00000000E+00
  0.00000000E+00  0.00000000E+00  0.00000000E+00
  0.00000000E+00  0.00000000E+00  0.00000000E+00
  0.00000000E+00  0.00000000E+00  0.00000000E+00
