Ca2 Mn4 F12                             
   1.00000000000000     
     5.6625801603685977    0.0000027239838898   -0.0000044433302466
     0.0000039243818409    8.2958068236139955    0.0000001951912835
    -0.0000043150078279    0.0000001895670744    5.4840845570150227
   Ca   Mn   F 
     2     4    12
Direct
  0.4273554378720327  0.7500003108313944  0.4883926709042206
  0.9273554072746657  0.7499996271016529  0.0116075323126072
  0.9924950859157649  0.4802359847404041  0.5013324415509671
  0.4924934201114092  0.0197640616350181  0.9986685358056060
  0.9924932690143116  0.0197641066062737  0.5013331787012236
  0.4924954819887691  0.4802365984657177  0.9986674754224624
  0.9361121922483411  0.2499999069603729  0.4126902682220879
  0.4361198128334020  0.2500002237452515  0.0873089348733831
  0.0291941529166156  0.7500000012020855  0.6018717327762320
  0.5291929455342974  0.7499999772613063  0.8981284017585082
  0.7046651480481037  0.5842241932019595  0.2969578372177206
  0.2046647983430650  0.9157766715460602  0.2030421836124696
  0.3299079333981285  0.0023380031585812  0.6597861838532576
  0.8299087899970359  0.4976630587860301  0.8402131903558434
  0.3299089549502743  0.4976630384046994  0.6597867856369934
  0.8299063358774030  0.0023341500677787  0.8402119381401431
  0.7046653825748096  0.9157761522389941  0.2969579936021202
  0.2046654511015701  0.5842239340464124  0.2030427152541610
 
  0.00000000E+00  0.00000000E+00  0.00000000E+00
  0.00000000E+00  0.00000000E+00  0.00000000E+00
  0.00000000E+00  0.00000000E+00  0.00000000E+00
  0.00000000E+00  0.00000000E+00  0.00000000E+00
  0.00000000E+00  0.00000000E+00  0.00000000E+00
  0.00000000E+00  0.00000000E+00  0.00000000E+00
  0.00000000E+00  0.00000000E+00  0.00000000E+00
  0.00000000E+00  0.00000000E+00  0.00000000E+00
  0.00000000E+00  0.00000000E+00  0.00000000E+00
  0.00000000E+00  0.00000000E+00  0.00000000E+00
  0.00000000E+00  0.00000000E+00  0.00000000E+00
  0.00000000E+00  0.00000000E+00  0.00000000E+00
  0.00000000E+00  0.00000000E+00  0.00000000E+00
  0.00000000E+00  0.00000000E+00  0.00000000E+00
  0.00000000E+00  0.00000000E+00  0.00000000E+00
  0.00000000E+00  0.00000000E+00  0.00000000E+00
  0.00000000E+00  0.00000000E+00  0.00000000E+00
  0.00000000E+00  0.00000000E+00  0.00000000E+00
