Ca1 Cr12 F42                            
   1.00000000000000     
     7.2334470000000000   -0.0272640000000000   -0.0161440000000000
    -3.5905909999999999    6.2811180000000002    0.0588800000000000
     0.0400200000000000    0.2116040000000000   17.2043759999999999
   Ca   Cr   F 
     1    12    42
Direct
  0.8538855681099722  0.0631362495060399  0.3348094526824810
  0.2852419952426466  0.0009912488865931  0.3314290431954869
  0.7217677276055612  0.7216652941700885  0.9969345337244011
  0.9964745916265867  0.2833257294958072  0.6698260525669210
  0.3583033149629104  1.0016971040659797  0.8336812497697189
  0.6346564647591342  0.6473203447743975  0.5012187026534752
  1.0082918405654240  0.3655342599363424  0.1624530160754826
  0.6333164835222488  0.1490692442756766  0.5059290113160522
  0.5065132268073989  0.3612339336520927  0.1649815030224301
  0.8579663727073215  0.5029799406754909  0.8332658716151498
  0.3565845314969997  0.5004214388029344  0.8338902661350072
  0.1350532765527096  0.6467685368275238  0.5012633341376188
  0.5066080956509438  0.8598858265999557  0.1635726522840265
  0.5838428236943624  0.8414152597538296  0.0592162873556247
  0.2559483526952537  0.4323742368939626  0.7289027240882231
  0.1657367537439810  0.7433727217377415  0.3947229903871400
  0.4352820485303692  0.2623104350769744  0.2708649037671368
  0.8306318588122602  0.5724287483000505  0.9378246812123566
  0.7341958674582746  0.1642673206434836  0.6092169448966830
  0.8843089623276488  0.0688147363161589  0.7350773484834739
  0.1494851770479048  0.1120543858511841  0.3914041095780310
  0.9376539180180586  0.8189572846557279  0.0595298149936868
  0.1134432806966588  0.1885014979874149  0.6052490949799104
  0.0501951818952200  0.8978715335827309  0.2689122382841340
  0.8184532786532084  0.9348877004701808  0.9312757091448769
  0.1063010352264655  0.5450359085026981  0.6054345164184843
  0.4541306983453053  0.8947532651302182  0.2732319311992695
  0.4563555821617749  0.5740673799982494  0.9381417866990567
  0.8793936625401567  0.4284911874009726  0.7290907081739744
  0.5517758007503574  0.1255425116645673  0.3964491544956849
  0.5774819978493524  0.4598047741187494  0.0604899116315333
  0.3431627578533069  0.5623769969008884  0.4787804852332084
  0.2148125072079022  0.6597877729916686  0.1435895046668392
  0.4425073647906383  0.7952309514786036  0.8120119321024684
  0.6487133379684419  0.2087822130709307  0.8558617998240677
  0.5478562974963161  0.3544258240377856  0.5255981167502938
  0.7979793179006961  0.4441309836951150  0.1873784777052669
  0.6855036798523270  0.6357974353476568  0.3976185958242696
  0.9309333990306118  0.3248579744790763  0.0640854929056493
  0.3966919486475211  0.0830633854803062  0.7349094314359654
  0.3146917626174559  0.9204252339755611  0.9324459966923401
  0.5995736949381265  0.6934804163303666  0.5992998437101840
  0.0644086133572693  0.3780231900495322  0.2710320437351062
  0.9271428595676302  0.7315983275112723  0.5210943780089927
  0.7985970077954440  0.0661403211513808  0.1925028420003269
  0.2717826129403356  0.2076024563646240  0.8557226691784471
  0.0662306534741313  0.7951323844378377  0.8109640484685758
  0.7217554040046115  0.9474182623767650  0.4732390587936632
  0.2146846377631982  0.2781714659649534  0.1451887207087274
  0.6355947326006222  0.5593287525653676  0.8004794486645659
  0.9129020737381649  0.3662381477881745  0.4673647606842575
  0.4517500606931834  0.0849174176667635  0.1330944879855299
  0.3527567669742827  0.9235572394662489  0.5349113203282833
  0.5632513755128672  0.6388113774346882  0.1985222338547225
  0.0779846410494377  0.4437201523216287  0.8666093943232879
 
             NaN             NaN             NaN
             NaN             NaN             NaN
             NaN             NaN             NaN
             NaN             NaN             NaN
             NaN             NaN             NaN
             NaN             NaN             NaN
             NaN             NaN             NaN
             NaN             NaN             NaN
             NaN             NaN             NaN
             NaN             NaN             NaN
             NaN             NaN             NaN
             NaN             NaN             NaN
             NaN             NaN             NaN
             NaN             NaN             NaN
             NaN             NaN             NaN
             NaN             NaN             NaN
             NaN             NaN             NaN
             NaN             NaN             NaN
             NaN             NaN             NaN
             NaN             NaN             NaN
             NaN             NaN             NaN
             NaN             NaN             NaN
             NaN             NaN             NaN
             NaN             NaN             NaN
             NaN             NaN             NaN
             NaN             NaN             NaN
             NaN             NaN             NaN
             NaN             NaN             NaN
             NaN             NaN             NaN
             NaN             NaN             NaN
             NaN             NaN             NaN
             NaN             NaN             NaN
             NaN             NaN             NaN
             NaN             NaN             NaN
             NaN             NaN             NaN
             NaN             NaN             NaN
             NaN             NaN             NaN
             NaN             NaN             NaN
             NaN             NaN             NaN
             NaN             NaN             NaN
             NaN             NaN             NaN
             NaN             NaN             NaN
             NaN             NaN             NaN
             NaN             NaN             NaN
             NaN             NaN             NaN
             NaN             NaN             NaN
             NaN             NaN             NaN
             NaN             NaN             NaN
             NaN             NaN             NaN
             NaN             NaN             NaN
             NaN             NaN             NaN
             NaN             NaN             NaN
             NaN             NaN             NaN
             NaN             NaN             NaN
             NaN             NaN             NaN
