Ca1 Cr12 F42
1.0
7.233447 -0.027264 -0.016144
-3.590591 6.281118 0.058880
0.040020 0.211604 17.204376
Ca Cr F
1 12 42
direct
0.850439 0.090118 0.332731 Ca
0.298617 0.001609 0.333574 Cr
0.713359 0.713608 0.997443 Cr
0.998237 0.284842 0.669370 Cr
0.359176 0.998005 0.833657 Cr
0.645846 0.653437 0.503287 Cr
0.994364 0.348273 0.163448 Cr
0.646293 0.154284 0.504504 Cr
0.495549 0.349905 0.163905 Cr
0.858553 0.500583 0.834149 Cr
0.355918 0.495525 0.833220 Cr
0.147102 0.651512 0.503166 Cr
0.493380 0.847311 0.162548 Cr
0.564045 0.825621 0.057675 F
0.257534 0.421611 0.728727 F
0.172022 0.742210 0.395808 F
0.441803 0.260949 0.271813 F
0.826808 0.566507 0.938945 F
0.736929 0.183556 0.609406 F
0.877770 0.067634 0.733486 F
0.172364 0.113341 0.395648 F
0.922682 0.807126 0.063154 F
0.106900 0.183215 0.603934 F
0.057106 0.891074 0.272590 F
0.818202 0.930791 0.933209 F
0.122688 0.551357 0.607099 F
0.445029 0.881195 0.271588 F
0.452907 0.571616 0.936869 F
0.887449 0.434859 0.729789 F
0.569294 0.116095 0.394275 F
0.561886 0.446921 0.059345 F
0.356463 0.573132 0.478587 F
0.198838 0.644175 0.148784 F
0.438625 0.788340 0.809434 F
0.650692 0.205086 0.854778 F
0.551470 0.356081 0.514150 F
0.787320 0.434347 0.185890 F
0.700077 0.663352 0.395515 F
0.926845 0.316870 0.064104 F
0.395897 0.080548 0.734978 F
0.320427 0.915038 0.932212 F
0.602233 0.676379 0.602690 F
0.037126 0.348972 0.271994 F
0.937360 0.732301 0.523286 F
0.786525 0.048337 0.186964 F
0.274938 0.204836 0.857333 F
0.065626 0.793816 0.813093 F
0.743476 0.955927 0.483696 F
0.202413 0.262432 0.147183 F
0.636253 0.556305 0.800807 F
0.924944 0.374790 0.468672 F
0.437167 0.071765 0.132538 F
0.365587 0.930382 0.534323 F
0.552593 0.627314 0.197402 F
0.077794 0.439365 0.866615 F
