Ni4 F14                                 
   1.00000000000000     
    -6.9588663626695562    0.0001087042711844    0.0017065890314799
    -3.4779441845668679   -5.0819306294542583   -2.9999148880713746
    -3.4801606639473874   -5.0829042134470210    3.0020104480950383
   F    Ni
    14     4
Direct
  0.7501313499226601  0.3973711761550551  0.1025570846830704
  0.2497631692593970  0.6026473216883842  0.8975419655154944
  0.9624221442118508  0.8175231957818673  0.2585456367345190
  0.0377735597223394  0.1818918413341290  0.7423143876934564
  0.4616269596335490  0.7585342000369993  0.3172862813309147
  0.5380812297896957  0.2423017870272150  0.6819653235772741
  0.0682981050415044  0.5853097638900673  0.6699446482756922
  0.3234910162456786  0.4141883379403969  0.3305133358281037
  0.5683114609171770  0.1694996888776169  0.0857541918774702
  0.8237339098933584  0.8305886842086169  0.9142634587007127
  0.9314894469520081  0.4145888437662076  0.3302535884994272
  0.6765136948143712  0.5851005406153283  0.6699620799039279
  0.4322119528555652  0.8305958689141444  0.9135625378053873
  0.1764242491616539  0.1699289352758152  0.0855666656913082
  0.4999898814020877  0.0001882322216570  0.9996355091344170
  0.9999011078802490  0.4997143573967864  0.5002674882244295
  0.9999041417896837  0.5000840413004491  0.9999828112735607
  0.4999326205071568  0.4999431835692499  0.0000830052508417
 
  0.00000000E+00  0.00000000E+00  0.00000000E+00
  0.00000000E+00  0.00000000E+00  0.00000000E+00
  0.00000000E+00  0.00000000E+00  0.00000000E+00
  0.00000000E+00  0.00000000E+00  0.00000000E+00
  0.00000000E+00  0.00000000E+00  0.00000000E+00
  0.00000000E+00  0.00000000E+00  0.00000000E+00
  0.00000000E+00  0.00000000E+00  0.00000000E+00
  0.00000000E+00  0.00000000E+00  0.00000000E+00
  0.00000000E+00  0.00000000E+00  0.00000000E+00
  0.00000000E+00  0.00000000E+00  0.00000000E+00
  0.00000000E+00  0.00000000E+00  0.00000000E+00
  0.00000000E+00  0.00000000E+00  0.00000000E+00
  0.00000000E+00  0.00000000E+00  0.00000000E+00
  0.00000000E+00  0.00000000E+00  0.00000000E+00
  0.00000000E+00  0.00000000E+00  0.00000000E+00
  0.00000000E+00  0.00000000E+00  0.00000000E+00
  0.00000000E+00  0.00000000E+00  0.00000000E+00
  0.00000000E+00  0.00000000E+00  0.00000000E+00
