Ca3 Mn4 F14                             
   1.00000000000000     
    -7.6522400685782408    0.0034433410135872   -0.0012059943191590
    -3.8242197769849242   -5.2905937466084367   -3.7424488212795990
    -3.8234574926153577   -5.2209038170446007    3.6642140065434035
   Ca   Mn   F 
     3     4    14
Direct
  0.4998792310450151  0.5002262817332264  0.4999456472898293
  0.0002860402440675  0.9998831164644918  0.4998739593912716
  0.5000649441655157  0.9999977830930560  0.4997963360485638
  0.4998553105231153  0.0006599933092252  0.9992279140133531
  0.0000644276196187  0.4998502858172540  0.5003351221895511
  0.9995710386315118  0.5000858825315307  0.0006268446215731
  0.4999919116067792  0.4999359112298797  0.0000336007085221
  0.6933948093199038  0.4857745088307490  0.1274388815913655
  0.3064874695628848  0.5139497162132923  0.8728378973059884
  0.8761733198327872  0.8560598968021506  0.3911898248704784
  0.1239547039293917  0.1437254607515595  0.6089726246597368
  0.3876447670301319  0.8567024417986941  0.3679619610722716
  0.6127013094611833  0.1435731726014467  0.6312287147524797
  0.1069083455725107  0.5825285126422304  0.6505993978893253
  0.3396760141345516  0.4178080679201543  0.3496718823964294
  0.5739763301573038  0.1582549760019628  0.1065404950974231
  0.8386205209675697  0.8417104830395734  0.8935466456920484
  0.8929703431956225  0.4171481836763213  0.3501226874747363
  0.6602910493965681  0.5820481501440069  0.6505230105218865
  0.4260983286267233  0.8416650927783841  0.8931881576764806
  0.1613897849772375  0.1584120826208321  0.1063383947366859
 
  0.00000000E+00  0.00000000E+00  0.00000000E+00
  0.00000000E+00  0.00000000E+00  0.00000000E+00
  0.00000000E+00  0.00000000E+00  0.00000000E+00
  0.00000000E+00  0.00000000E+00  0.00000000E+00
  0.00000000E+00  0.00000000E+00  0.00000000E+00
  0.00000000E+00  0.00000000E+00  0.00000000E+00
  0.00000000E+00  0.00000000E+00  0.00000000E+00
  0.00000000E+00  0.00000000E+00  0.00000000E+00
  0.00000000E+00  0.00000000E+00  0.00000000E+00
  0.00000000E+00  0.00000000E+00  0.00000000E+00
  0.00000000E+00  0.00000000E+00  0.00000000E+00
  0.00000000E+00  0.00000000E+00  0.00000000E+00
  0.00000000E+00  0.00000000E+00  0.00000000E+00
  0.00000000E+00  0.00000000E+00  0.00000000E+00
  0.00000000E+00  0.00000000E+00  0.00000000E+00
  0.00000000E+00  0.00000000E+00  0.00000000E+00
  0.00000000E+00  0.00000000E+00  0.00000000E+00
  0.00000000E+00  0.00000000E+00  0.00000000E+00
  0.00000000E+00  0.00000000E+00  0.00000000E+00
  0.00000000E+00  0.00000000E+00  0.00000000E+00
  0.00000000E+00  0.00000000E+00  0.00000000E+00
