Mn4 F14                                 
   1.00000000000000     
    -7.0348348775428677    0.0005789873925278    0.0000079206890062
    -3.5181364207236929   -5.5012873082770541   -3.1496334346448771
    -3.5180775788250407   -5.5010975879883857    3.1497635202863554
   F    Mn
    14     4
Direct
  0.7500844068745209  0.3994565267569641  0.1003615723280475
  0.2500683701760096  0.6003594272481578  0.8994830391030959
  0.9636404837764942  0.8104126650752690  0.2623926779595962
  0.0362573893551996  0.1898180344920277  0.7374609775821170
  0.4637194392630022  0.7624096707177799  0.3103949581480450
  0.5364405710080433  0.2373818488325199  0.6897190145215646
  0.0577799589183599  0.5799712757331648  0.6907759921430738
  0.3284245191045869  0.4200184625528962  0.3091877835389383
  0.5578146376600230  0.1907999906862372  0.0799405527982557
  0.8284282910793408  0.8092047235648892  0.9200046131343740
  0.9421862118129525  0.4200483253507272  0.3092107354229512
  0.6714975314505125  0.5801388075416725  0.6907576758464486
  0.4421544063746694  0.8091958986744245  0.9201388452383128
  0.1715269051458392  0.1907987150632664  0.0800433951022796
  0.5000216867359484  0.9999480562718190  0.0000779628407983
  0.0000033103465640  0.5000425981114347  0.4999730126997335
  0.9999723246711270  0.5000268295190153  0.0000242716043815
  0.4999795562467995  0.4999681438077346  0.0000529199879935
 
  0.00000000E+00  0.00000000E+00  0.00000000E+00
  0.00000000E+00  0.00000000E+00  0.00000000E+00
  0.00000000E+00  0.00000000E+00  0.00000000E+00
  0.00000000E+00  0.00000000E+00  0.00000000E+00
  0.00000000E+00  0.00000000E+00  0.00000000E+00
  0.00000000E+00  0.00000000E+00  0.00000000E+00
  0.00000000E+00  0.00000000E+00  0.00000000E+00
  0.00000000E+00  0.00000000E+00  0.00000000E+00
  0.00000000E+00  0.00000000E+00  0.00000000E+00
  0.00000000E+00  0.00000000E+00  0.00000000E+00
  0.00000000E+00  0.00000000E+00  0.00000000E+00
  0.00000000E+00  0.00000000E+00  0.00000000E+00
  0.00000000E+00  0.00000000E+00  0.00000000E+00
  0.00000000E+00  0.00000000E+00  0.00000000E+00
  0.00000000E+00  0.00000000E+00  0.00000000E+00
  0.00000000E+00  0.00000000E+00  0.00000000E+00
  0.00000000E+00  0.00000000E+00  0.00000000E+00
  0.00000000E+00  0.00000000E+00  0.00000000E+00
